###############################################################################
# Reference paper:                                                            #
# K. Kremer and G. S. Grest                                                   #
# Dynamics of entangled linear polymer melts: A molecular-dynamics simulation #
# J Chem Phys 92, 5057 (1990)                                                 #
###############################################################################

#######################################################
# Box and units  (use LJ units and period boundaries) #
#######################################################
units lj
atom_style angle #with stiffness

boundary        p p p

############################
# READ "Restart" data file #
############################
#read_restart

##########################
# READ "start" data file #
##########################
read_data ../../../0_generate_single_chromosome_initial_rosettes_conformations_corrected_density/Initial_rosette_conformation_with_pbc_replica_XXXreplicaXXX.dat

mass * 1.0

# Set atom types depending on Daniel's chromatin states:
# 1=undetermined
# 2=constitutuve heterochromatin 
# 3=facultative  heterochromatin
# 4=active/null
#52795 to 66518
set atom 1 type 4
set atom 6196 type 4
set atom 12391 type 4
set atom 18586 type 4
set atom 24781 type 4
set atom 2 type 1
set atom 6197 type 1
set atom 12392 type 1
set atom 18587 type 1
set atom 24782 type 1
set atom 3 type 4
set atom 6198 type 4
set atom 12393 type 4
set atom 18588 type 4
set atom 24783 type 4
set atom 4 type 4
set atom 6199 type 4
set atom 12394 type 4
set atom 18589 type 4
set atom 24784 type 4
set atom 5 type 4
set atom 6200 type 4
set atom 12395 type 4
set atom 18590 type 4
set atom 24785 type 4
set atom 6 type 4
set atom 6201 type 4
set atom 12396 type 4
set atom 18591 type 4
set atom 24786 type 4
set atom 7 type 4
set atom 6202 type 4
set atom 12397 type 4
set atom 18592 type 4
set atom 24787 type 4
set atom 8 type 1
set atom 6203 type 1
set atom 12398 type 1
set atom 18593 type 1
set atom 24788 type 1
set atom 9 type 4
set atom 6204 type 4
set atom 12399 type 4
set atom 18594 type 4
set atom 24789 type 4
set atom 10 type 4
set atom 6205 type 4
set atom 12400 type 4
set atom 18595 type 4
set atom 24790 type 4
set atom 11 type 4
set atom 6206 type 4
set atom 12401 type 4
set atom 18596 type 4
set atom 24791 type 4
set atom 12 type 4
set atom 6207 type 4
set atom 12402 type 4
set atom 18597 type 4
set atom 24792 type 4
set atom 13 type 4
set atom 6208 type 4
set atom 12403 type 4
set atom 18598 type 4
set atom 24793 type 4
set atom 14 type 3
set atom 6209 type 3
set atom 12404 type 3
set atom 18599 type 3
set atom 24794 type 3
set atom 15 type 4
set atom 6210 type 4
set atom 12405 type 4
set atom 18600 type 4
set atom 24795 type 4
set atom 16 type 2
set atom 6211 type 2
set atom 12406 type 2
set atom 18601 type 2
set atom 24796 type 2
set atom 17 type 2
set atom 6212 type 2
set atom 12407 type 2
set atom 18602 type 2
set atom 24797 type 2
set atom 18 type 1
set atom 6213 type 1
set atom 12408 type 1
set atom 18603 type 1
set atom 24798 type 1
set atom 19 type 4
set atom 6214 type 4
set atom 12409 type 4
set atom 18604 type 4
set atom 24799 type 4
set atom 20 type 3
set atom 6215 type 3
set atom 12410 type 3
set atom 18605 type 3
set atom 24800 type 3
set atom 21 type 3
set atom 6216 type 3
set atom 12411 type 3
set atom 18606 type 3
set atom 24801 type 3
set atom 22 type 4
set atom 6217 type 4
set atom 12412 type 4
set atom 18607 type 4
set atom 24802 type 4
set atom 23 type 4
set atom 6218 type 4
set atom 12413 type 4
set atom 18608 type 4
set atom 24803 type 4
set atom 24 type 3
set atom 6219 type 3
set atom 12414 type 3
set atom 18609 type 3
set atom 24804 type 3
set atom 25 type 3
set atom 6220 type 3
set atom 12415 type 3
set atom 18610 type 3
set atom 24805 type 3
set atom 26 type 4
set atom 6221 type 4
set atom 12416 type 4
set atom 18611 type 4
set atom 24806 type 4
set atom 27 type 3
set atom 6222 type 3
set atom 12417 type 3
set atom 18612 type 3
set atom 24807 type 3
set atom 28 type 3
set atom 6223 type 3
set atom 12418 type 3
set atom 18613 type 3
set atom 24808 type 3
set atom 29 type 3
set atom 6224 type 3
set atom 12419 type 3
set atom 18614 type 3
set atom 24809 type 3
set atom 30 type 3
set atom 6225 type 3
set atom 12420 type 3
set atom 18615 type 3
set atom 24810 type 3
set atom 31 type 4
set atom 6226 type 4
set atom 12421 type 4
set atom 18616 type 4
set atom 24811 type 4
set atom 32 type 4
set atom 6227 type 4
set atom 12422 type 4
set atom 18617 type 4
set atom 24812 type 4
set atom 33 type 4
set atom 6228 type 4
set atom 12423 type 4
set atom 18618 type 4
set atom 24813 type 4
set atom 34 type 4
set atom 6229 type 4
set atom 12424 type 4
set atom 18619 type 4
set atom 24814 type 4
set atom 35 type 4
set atom 6230 type 4
set atom 12425 type 4
set atom 18620 type 4
set atom 24815 type 4
set atom 36 type 4
set atom 6231 type 4
set atom 12426 type 4
set atom 18621 type 4
set atom 24816 type 4
set atom 37 type 3
set atom 6232 type 3
set atom 12427 type 3
set atom 18622 type 3
set atom 24817 type 3
set atom 38 type 3
set atom 6233 type 3
set atom 12428 type 3
set atom 18623 type 3
set atom 24818 type 3
set atom 39 type 4
set atom 6234 type 4
set atom 12429 type 4
set atom 18624 type 4
set atom 24819 type 4
set atom 40 type 1
set atom 6235 type 1
set atom 12430 type 1
set atom 18625 type 1
set atom 24820 type 1
set atom 41 type 4
set atom 6236 type 4
set atom 12431 type 4
set atom 18626 type 4
set atom 24821 type 4
set atom 42 type 3
set atom 6237 type 3
set atom 12432 type 3
set atom 18627 type 3
set atom 24822 type 3
set atom 43 type 4
set atom 6238 type 4
set atom 12433 type 4
set atom 18628 type 4
set atom 24823 type 4
set atom 44 type 4
set atom 6239 type 4
set atom 12434 type 4
set atom 18629 type 4
set atom 24824 type 4
set atom 45 type 3
set atom 6240 type 3
set atom 12435 type 3
set atom 18630 type 3
set atom 24825 type 3
set atom 46 type 3
set atom 6241 type 3
set atom 12436 type 3
set atom 18631 type 3
set atom 24826 type 3
set atom 47 type 4
set atom 6242 type 4
set atom 12437 type 4
set atom 18632 type 4
set atom 24827 type 4
set atom 48 type 4
set atom 6243 type 4
set atom 12438 type 4
set atom 18633 type 4
set atom 24828 type 4
set atom 49 type 4
set atom 6244 type 4
set atom 12439 type 4
set atom 18634 type 4
set atom 24829 type 4
set atom 50 type 4
set atom 6245 type 4
set atom 12440 type 4
set atom 18635 type 4
set atom 24830 type 4
set atom 51 type 4
set atom 6246 type 4
set atom 12441 type 4
set atom 18636 type 4
set atom 24831 type 4
set atom 52 type 4
set atom 6247 type 4
set atom 12442 type 4
set atom 18637 type 4
set atom 24832 type 4
set atom 53 type 3
set atom 6248 type 3
set atom 12443 type 3
set atom 18638 type 3
set atom 24833 type 3
set atom 54 type 4
set atom 6249 type 4
set atom 12444 type 4
set atom 18639 type 4
set atom 24834 type 4
set atom 55 type 4
set atom 6250 type 4
set atom 12445 type 4
set atom 18640 type 4
set atom 24835 type 4
set atom 56 type 4
set atom 6251 type 4
set atom 12446 type 4
set atom 18641 type 4
set atom 24836 type 4
set atom 57 type 3
set atom 6252 type 3
set atom 12447 type 3
set atom 18642 type 3
set atom 24837 type 3
set atom 58 type 3
set atom 6253 type 3
set atom 12448 type 3
set atom 18643 type 3
set atom 24838 type 3
set atom 59 type 4
set atom 6254 type 4
set atom 12449 type 4
set atom 18644 type 4
set atom 24839 type 4
set atom 60 type 4
set atom 6255 type 4
set atom 12450 type 4
set atom 18645 type 4
set atom 24840 type 4
set atom 61 type 4
set atom 6256 type 4
set atom 12451 type 4
set atom 18646 type 4
set atom 24841 type 4
set atom 62 type 4
set atom 6257 type 4
set atom 12452 type 4
set atom 18647 type 4
set atom 24842 type 4
set atom 63 type 3
set atom 6258 type 3
set atom 12453 type 3
set atom 18648 type 3
set atom 24843 type 3
set atom 64 type 4
set atom 6259 type 4
set atom 12454 type 4
set atom 18649 type 4
set atom 24844 type 4
set atom 65 type 4
set atom 6260 type 4
set atom 12455 type 4
set atom 18650 type 4
set atom 24845 type 4
set atom 66 type 1
set atom 6261 type 1
set atom 12456 type 1
set atom 18651 type 1
set atom 24846 type 1
set atom 67 type 4
set atom 6262 type 4
set atom 12457 type 4
set atom 18652 type 4
set atom 24847 type 4
set atom 68 type 1
set atom 6263 type 1
set atom 12458 type 1
set atom 18653 type 1
set atom 24848 type 1
set atom 69 type 1
set atom 6264 type 1
set atom 12459 type 1
set atom 18654 type 1
set atom 24849 type 1
set atom 70 type 1
set atom 6265 type 1
set atom 12460 type 1
set atom 18655 type 1
set atom 24850 type 1
set atom 71 type 3
set atom 6266 type 3
set atom 12461 type 3
set atom 18656 type 3
set atom 24851 type 3
set atom 72 type 3
set atom 6267 type 3
set atom 12462 type 3
set atom 18657 type 3
set atom 24852 type 3
set atom 73 type 3
set atom 6268 type 3
set atom 12463 type 3
set atom 18658 type 3
set atom 24853 type 3
set atom 74 type 4
set atom 6269 type 4
set atom 12464 type 4
set atom 18659 type 4
set atom 24854 type 4
set atom 75 type 4
set atom 6270 type 4
set atom 12465 type 4
set atom 18660 type 4
set atom 24855 type 4
set atom 76 type 4
set atom 6271 type 4
set atom 12466 type 4
set atom 18661 type 4
set atom 24856 type 4
set atom 77 type 4
set atom 6272 type 4
set atom 12467 type 4
set atom 18662 type 4
set atom 24857 type 4
set atom 78 type 3
set atom 6273 type 3
set atom 12468 type 3
set atom 18663 type 3
set atom 24858 type 3
set atom 79 type 4
set atom 6274 type 4
set atom 12469 type 4
set atom 18664 type 4
set atom 24859 type 4
set atom 80 type 4
set atom 6275 type 4
set atom 12470 type 4
set atom 18665 type 4
set atom 24860 type 4
set atom 81 type 4
set atom 6276 type 4
set atom 12471 type 4
set atom 18666 type 4
set atom 24861 type 4
set atom 82 type 4
set atom 6277 type 4
set atom 12472 type 4
set atom 18667 type 4
set atom 24862 type 4
set atom 83 type 4
set atom 6278 type 4
set atom 12473 type 4
set atom 18668 type 4
set atom 24863 type 4
set atom 84 type 4
set atom 6279 type 4
set atom 12474 type 4
set atom 18669 type 4
set atom 24864 type 4
set atom 85 type 3
set atom 6280 type 3
set atom 12475 type 3
set atom 18670 type 3
set atom 24865 type 3
set atom 86 type 4
set atom 6281 type 4
set atom 12476 type 4
set atom 18671 type 4
set atom 24866 type 4
set atom 87 type 1
set atom 6282 type 1
set atom 12477 type 1
set atom 18672 type 1
set atom 24867 type 1
set atom 88 type 4
set atom 6283 type 4
set atom 12478 type 4
set atom 18673 type 4
set atom 24868 type 4
set atom 89 type 4
set atom 6284 type 4
set atom 12479 type 4
set atom 18674 type 4
set atom 24869 type 4
set atom 90 type 4
set atom 6285 type 4
set atom 12480 type 4
set atom 18675 type 4
set atom 24870 type 4
set atom 91 type 4
set atom 6286 type 4
set atom 12481 type 4
set atom 18676 type 4
set atom 24871 type 4
set atom 92 type 1
set atom 6287 type 1
set atom 12482 type 1
set atom 18677 type 1
set atom 24872 type 1
set atom 93 type 4
set atom 6288 type 4
set atom 12483 type 4
set atom 18678 type 4
set atom 24873 type 4
set atom 94 type 1
set atom 6289 type 1
set atom 12484 type 1
set atom 18679 type 1
set atom 24874 type 1
set atom 95 type 4
set atom 6290 type 4
set atom 12485 type 4
set atom 18680 type 4
set atom 24875 type 4
set atom 96 type 4
set atom 6291 type 4
set atom 12486 type 4
set atom 18681 type 4
set atom 24876 type 4
set atom 97 type 4
set atom 6292 type 4
set atom 12487 type 4
set atom 18682 type 4
set atom 24877 type 4
set atom 98 type 4
set atom 6293 type 4
set atom 12488 type 4
set atom 18683 type 4
set atom 24878 type 4
set atom 99 type 4
set atom 6294 type 4
set atom 12489 type 4
set atom 18684 type 4
set atom 24879 type 4
set atom 100 type 3
set atom 6295 type 3
set atom 12490 type 3
set atom 18685 type 3
set atom 24880 type 3
set atom 101 type 3
set atom 6296 type 3
set atom 12491 type 3
set atom 18686 type 3
set atom 24881 type 3
set atom 102 type 1
set atom 6297 type 1
set atom 12492 type 1
set atom 18687 type 1
set atom 24882 type 1
set atom 103 type 4
set atom 6298 type 4
set atom 12493 type 4
set atom 18688 type 4
set atom 24883 type 4
set atom 104 type 4
set atom 6299 type 4
set atom 12494 type 4
set atom 18689 type 4
set atom 24884 type 4
set atom 105 type 4
set atom 6300 type 4
set atom 12495 type 4
set atom 18690 type 4
set atom 24885 type 4
set atom 106 type 4
set atom 6301 type 4
set atom 12496 type 4
set atom 18691 type 4
set atom 24886 type 4
set atom 107 type 4
set atom 6302 type 4
set atom 12497 type 4
set atom 18692 type 4
set atom 24887 type 4
set atom 108 type 4
set atom 6303 type 4
set atom 12498 type 4
set atom 18693 type 4
set atom 24888 type 4
set atom 109 type 4
set atom 6304 type 4
set atom 12499 type 4
set atom 18694 type 4
set atom 24889 type 4
set atom 110 type 4
set atom 6305 type 4
set atom 12500 type 4
set atom 18695 type 4
set atom 24890 type 4
set atom 111 type 1
set atom 6306 type 1
set atom 12501 type 1
set atom 18696 type 1
set atom 24891 type 1
set atom 112 type 1
set atom 6307 type 1
set atom 12502 type 1
set atom 18697 type 1
set atom 24892 type 1
set atom 113 type 1
set atom 6308 type 1
set atom 12503 type 1
set atom 18698 type 1
set atom 24893 type 1
set atom 114 type 4
set atom 6309 type 4
set atom 12504 type 4
set atom 18699 type 4
set atom 24894 type 4
set atom 115 type 4
set atom 6310 type 4
set atom 12505 type 4
set atom 18700 type 4
set atom 24895 type 4
set atom 116 type 4
set atom 6311 type 4
set atom 12506 type 4
set atom 18701 type 4
set atom 24896 type 4
set atom 117 type 4
set atom 6312 type 4
set atom 12507 type 4
set atom 18702 type 4
set atom 24897 type 4
set atom 118 type 4
set atom 6313 type 4
set atom 12508 type 4
set atom 18703 type 4
set atom 24898 type 4
set atom 119 type 4
set atom 6314 type 4
set atom 12509 type 4
set atom 18704 type 4
set atom 24899 type 4
set atom 120 type 3
set atom 6315 type 3
set atom 12510 type 3
set atom 18705 type 3
set atom 24900 type 3
set atom 121 type 3
set atom 6316 type 3
set atom 12511 type 3
set atom 18706 type 3
set atom 24901 type 3
set atom 122 type 3
set atom 6317 type 3
set atom 12512 type 3
set atom 18707 type 3
set atom 24902 type 3
set atom 123 type 3
set atom 6318 type 3
set atom 12513 type 3
set atom 18708 type 3
set atom 24903 type 3
set atom 124 type 4
set atom 6319 type 4
set atom 12514 type 4
set atom 18709 type 4
set atom 24904 type 4
set atom 125 type 3
set atom 6320 type 3
set atom 12515 type 3
set atom 18710 type 3
set atom 24905 type 3
set atom 126 type 3
set atom 6321 type 3
set atom 12516 type 3
set atom 18711 type 3
set atom 24906 type 3
set atom 127 type 4
set atom 6322 type 4
set atom 12517 type 4
set atom 18712 type 4
set atom 24907 type 4
set atom 128 type 4
set atom 6323 type 4
set atom 12518 type 4
set atom 18713 type 4
set atom 24908 type 4
set atom 129 type 4
set atom 6324 type 4
set atom 12519 type 4
set atom 18714 type 4
set atom 24909 type 4
set atom 130 type 4
set atom 6325 type 4
set atom 12520 type 4
set atom 18715 type 4
set atom 24910 type 4
set atom 131 type 4
set atom 6326 type 4
set atom 12521 type 4
set atom 18716 type 4
set atom 24911 type 4
set atom 132 type 4
set atom 6327 type 4
set atom 12522 type 4
set atom 18717 type 4
set atom 24912 type 4
set atom 133 type 1
set atom 6328 type 1
set atom 12523 type 1
set atom 18718 type 1
set atom 24913 type 1
set atom 134 type 3
set atom 6329 type 3
set atom 12524 type 3
set atom 18719 type 3
set atom 24914 type 3
set atom 135 type 4
set atom 6330 type 4
set atom 12525 type 4
set atom 18720 type 4
set atom 24915 type 4
set atom 136 type 3
set atom 6331 type 3
set atom 12526 type 3
set atom 18721 type 3
set atom 24916 type 3
set atom 137 type 4
set atom 6332 type 4
set atom 12527 type 4
set atom 18722 type 4
set atom 24917 type 4
set atom 138 type 2
set atom 6333 type 2
set atom 12528 type 2
set atom 18723 type 2
set atom 24918 type 2
set atom 139 type 4
set atom 6334 type 4
set atom 12529 type 4
set atom 18724 type 4
set atom 24919 type 4
set atom 140 type 4
set atom 6335 type 4
set atom 12530 type 4
set atom 18725 type 4
set atom 24920 type 4
set atom 141 type 4
set atom 6336 type 4
set atom 12531 type 4
set atom 18726 type 4
set atom 24921 type 4
set atom 142 type 4
set atom 6337 type 4
set atom 12532 type 4
set atom 18727 type 4
set atom 24922 type 4
set atom 143 type 1
set atom 6338 type 1
set atom 12533 type 1
set atom 18728 type 1
set atom 24923 type 1
set atom 144 type 4
set atom 6339 type 4
set atom 12534 type 4
set atom 18729 type 4
set atom 24924 type 4
set atom 145 type 4
set atom 6340 type 4
set atom 12535 type 4
set atom 18730 type 4
set atom 24925 type 4
set atom 146 type 4
set atom 6341 type 4
set atom 12536 type 4
set atom 18731 type 4
set atom 24926 type 4
set atom 147 type 4
set atom 6342 type 4
set atom 12537 type 4
set atom 18732 type 4
set atom 24927 type 4
set atom 148 type 4
set atom 6343 type 4
set atom 12538 type 4
set atom 18733 type 4
set atom 24928 type 4
set atom 149 type 4
set atom 6344 type 4
set atom 12539 type 4
set atom 18734 type 4
set atom 24929 type 4
set atom 150 type 4
set atom 6345 type 4
set atom 12540 type 4
set atom 18735 type 4
set atom 24930 type 4
set atom 151 type 4
set atom 6346 type 4
set atom 12541 type 4
set atom 18736 type 4
set atom 24931 type 4
set atom 152 type 4
set atom 6347 type 4
set atom 12542 type 4
set atom 18737 type 4
set atom 24932 type 4
set atom 153 type 4
set atom 6348 type 4
set atom 12543 type 4
set atom 18738 type 4
set atom 24933 type 4
set atom 154 type 4
set atom 6349 type 4
set atom 12544 type 4
set atom 18739 type 4
set atom 24934 type 4
set atom 155 type 4
set atom 6350 type 4
set atom 12545 type 4
set atom 18740 type 4
set atom 24935 type 4
set atom 156 type 4
set atom 6351 type 4
set atom 12546 type 4
set atom 18741 type 4
set atom 24936 type 4
set atom 157 type 4
set atom 6352 type 4
set atom 12547 type 4
set atom 18742 type 4
set atom 24937 type 4
set atom 158 type 4
set atom 6353 type 4
set atom 12548 type 4
set atom 18743 type 4
set atom 24938 type 4
set atom 159 type 4
set atom 6354 type 4
set atom 12549 type 4
set atom 18744 type 4
set atom 24939 type 4
set atom 160 type 4
set atom 6355 type 4
set atom 12550 type 4
set atom 18745 type 4
set atom 24940 type 4
set atom 161 type 4
set atom 6356 type 4
set atom 12551 type 4
set atom 18746 type 4
set atom 24941 type 4
set atom 162 type 4
set atom 6357 type 4
set atom 12552 type 4
set atom 18747 type 4
set atom 24942 type 4
set atom 163 type 4
set atom 6358 type 4
set atom 12553 type 4
set atom 18748 type 4
set atom 24943 type 4
set atom 164 type 4
set atom 6359 type 4
set atom 12554 type 4
set atom 18749 type 4
set atom 24944 type 4
set atom 165 type 1
set atom 6360 type 1
set atom 12555 type 1
set atom 18750 type 1
set atom 24945 type 1
set atom 166 type 4
set atom 6361 type 4
set atom 12556 type 4
set atom 18751 type 4
set atom 24946 type 4
set atom 167 type 3
set atom 6362 type 3
set atom 12557 type 3
set atom 18752 type 3
set atom 24947 type 3
set atom 168 type 4
set atom 6363 type 4
set atom 12558 type 4
set atom 18753 type 4
set atom 24948 type 4
set atom 169 type 4
set atom 6364 type 4
set atom 12559 type 4
set atom 18754 type 4
set atom 24949 type 4
set atom 170 type 4
set atom 6365 type 4
set atom 12560 type 4
set atom 18755 type 4
set atom 24950 type 4
set atom 171 type 4
set atom 6366 type 4
set atom 12561 type 4
set atom 18756 type 4
set atom 24951 type 4
set atom 172 type 4
set atom 6367 type 4
set atom 12562 type 4
set atom 18757 type 4
set atom 24952 type 4
set atom 173 type 4
set atom 6368 type 4
set atom 12563 type 4
set atom 18758 type 4
set atom 24953 type 4
set atom 174 type 4
set atom 6369 type 4
set atom 12564 type 4
set atom 18759 type 4
set atom 24954 type 4
set atom 175 type 1
set atom 6370 type 1
set atom 12565 type 1
set atom 18760 type 1
set atom 24955 type 1
set atom 176 type 1
set atom 6371 type 1
set atom 12566 type 1
set atom 18761 type 1
set atom 24956 type 1
set atom 177 type 4
set atom 6372 type 4
set atom 12567 type 4
set atom 18762 type 4
set atom 24957 type 4
set atom 178 type 4
set atom 6373 type 4
set atom 12568 type 4
set atom 18763 type 4
set atom 24958 type 4
set atom 179 type 1
set atom 6374 type 1
set atom 12569 type 1
set atom 18764 type 1
set atom 24959 type 1
set atom 180 type 1
set atom 6375 type 1
set atom 12570 type 1
set atom 18765 type 1
set atom 24960 type 1
set atom 181 type 4
set atom 6376 type 4
set atom 12571 type 4
set atom 18766 type 4
set atom 24961 type 4
set atom 182 type 4
set atom 6377 type 4
set atom 12572 type 4
set atom 18767 type 4
set atom 24962 type 4
set atom 183 type 4
set atom 6378 type 4
set atom 12573 type 4
set atom 18768 type 4
set atom 24963 type 4
set atom 184 type 4
set atom 6379 type 4
set atom 12574 type 4
set atom 18769 type 4
set atom 24964 type 4
set atom 185 type 3
set atom 6380 type 3
set atom 12575 type 3
set atom 18770 type 3
set atom 24965 type 3
set atom 186 type 4
set atom 6381 type 4
set atom 12576 type 4
set atom 18771 type 4
set atom 24966 type 4
set atom 187 type 3
set atom 6382 type 3
set atom 12577 type 3
set atom 18772 type 3
set atom 24967 type 3
set atom 188 type 3
set atom 6383 type 3
set atom 12578 type 3
set atom 18773 type 3
set atom 24968 type 3
set atom 189 type 4
set atom 6384 type 4
set atom 12579 type 4
set atom 18774 type 4
set atom 24969 type 4
set atom 190 type 3
set atom 6385 type 3
set atom 12580 type 3
set atom 18775 type 3
set atom 24970 type 3
set atom 191 type 4
set atom 6386 type 4
set atom 12581 type 4
set atom 18776 type 4
set atom 24971 type 4
set atom 192 type 4
set atom 6387 type 4
set atom 12582 type 4
set atom 18777 type 4
set atom 24972 type 4
set atom 193 type 3
set atom 6388 type 3
set atom 12583 type 3
set atom 18778 type 3
set atom 24973 type 3
set atom 194 type 3
set atom 6389 type 3
set atom 12584 type 3
set atom 18779 type 3
set atom 24974 type 3
set atom 195 type 3
set atom 6390 type 3
set atom 12585 type 3
set atom 18780 type 3
set atom 24975 type 3
set atom 196 type 4
set atom 6391 type 4
set atom 12586 type 4
set atom 18781 type 4
set atom 24976 type 4
set atom 197 type 4
set atom 6392 type 4
set atom 12587 type 4
set atom 18782 type 4
set atom 24977 type 4
set atom 198 type 4
set atom 6393 type 4
set atom 12588 type 4
set atom 18783 type 4
set atom 24978 type 4
set atom 199 type 3
set atom 6394 type 3
set atom 12589 type 3
set atom 18784 type 3
set atom 24979 type 3
set atom 200 type 3
set atom 6395 type 3
set atom 12590 type 3
set atom 18785 type 3
set atom 24980 type 3
set atom 201 type 4
set atom 6396 type 4
set atom 12591 type 4
set atom 18786 type 4
set atom 24981 type 4
set atom 202 type 3
set atom 6397 type 3
set atom 12592 type 3
set atom 18787 type 3
set atom 24982 type 3
set atom 203 type 3
set atom 6398 type 3
set atom 12593 type 3
set atom 18788 type 3
set atom 24983 type 3
set atom 204 type 3
set atom 6399 type 3
set atom 12594 type 3
set atom 18789 type 3
set atom 24984 type 3
set atom 205 type 1
set atom 6400 type 1
set atom 12595 type 1
set atom 18790 type 1
set atom 24985 type 1
set atom 206 type 4
set atom 6401 type 4
set atom 12596 type 4
set atom 18791 type 4
set atom 24986 type 4
set atom 207 type 3
set atom 6402 type 3
set atom 12597 type 3
set atom 18792 type 3
set atom 24987 type 3
set atom 208 type 3
set atom 6403 type 3
set atom 12598 type 3
set atom 18793 type 3
set atom 24988 type 3
set atom 209 type 1
set atom 6404 type 1
set atom 12599 type 1
set atom 18794 type 1
set atom 24989 type 1
set atom 210 type 2
set atom 6405 type 2
set atom 12600 type 2
set atom 18795 type 2
set atom 24990 type 2
set atom 211 type 2
set atom 6406 type 2
set atom 12601 type 2
set atom 18796 type 2
set atom 24991 type 2
set atom 212 type 4
set atom 6407 type 4
set atom 12602 type 4
set atom 18797 type 4
set atom 24992 type 4
set atom 213 type 3
set atom 6408 type 3
set atom 12603 type 3
set atom 18798 type 3
set atom 24993 type 3
set atom 214 type 4
set atom 6409 type 4
set atom 12604 type 4
set atom 18799 type 4
set atom 24994 type 4
set atom 215 type 3
set atom 6410 type 3
set atom 12605 type 3
set atom 18800 type 3
set atom 24995 type 3
set atom 216 type 3
set atom 6411 type 3
set atom 12606 type 3
set atom 18801 type 3
set atom 24996 type 3
set atom 217 type 4
set atom 6412 type 4
set atom 12607 type 4
set atom 18802 type 4
set atom 24997 type 4
set atom 218 type 3
set atom 6413 type 3
set atom 12608 type 3
set atom 18803 type 3
set atom 24998 type 3
set atom 219 type 3
set atom 6414 type 3
set atom 12609 type 3
set atom 18804 type 3
set atom 24999 type 3
set atom 220 type 3
set atom 6415 type 3
set atom 12610 type 3
set atom 18805 type 3
set atom 25000 type 3
set atom 221 type 3
set atom 6416 type 3
set atom 12611 type 3
set atom 18806 type 3
set atom 25001 type 3
set atom 222 type 3
set atom 6417 type 3
set atom 12612 type 3
set atom 18807 type 3
set atom 25002 type 3
set atom 223 type 3
set atom 6418 type 3
set atom 12613 type 3
set atom 18808 type 3
set atom 25003 type 3
set atom 224 type 4
set atom 6419 type 4
set atom 12614 type 4
set atom 18809 type 4
set atom 25004 type 4
set atom 225 type 4
set atom 6420 type 4
set atom 12615 type 4
set atom 18810 type 4
set atom 25005 type 4
set atom 226 type 4
set atom 6421 type 4
set atom 12616 type 4
set atom 18811 type 4
set atom 25006 type 4
set atom 227 type 4
set atom 6422 type 4
set atom 12617 type 4
set atom 18812 type 4
set atom 25007 type 4
set atom 228 type 4
set atom 6423 type 4
set atom 12618 type 4
set atom 18813 type 4
set atom 25008 type 4
set atom 229 type 4
set atom 6424 type 4
set atom 12619 type 4
set atom 18814 type 4
set atom 25009 type 4
set atom 230 type 4
set atom 6425 type 4
set atom 12620 type 4
set atom 18815 type 4
set atom 25010 type 4
set atom 231 type 4
set atom 6426 type 4
set atom 12621 type 4
set atom 18816 type 4
set atom 25011 type 4
set atom 232 type 4
set atom 6427 type 4
set atom 12622 type 4
set atom 18817 type 4
set atom 25012 type 4
set atom 233 type 4
set atom 6428 type 4
set atom 12623 type 4
set atom 18818 type 4
set atom 25013 type 4
set atom 234 type 4
set atom 6429 type 4
set atom 12624 type 4
set atom 18819 type 4
set atom 25014 type 4
set atom 235 type 4
set atom 6430 type 4
set atom 12625 type 4
set atom 18820 type 4
set atom 25015 type 4
set atom 236 type 4
set atom 6431 type 4
set atom 12626 type 4
set atom 18821 type 4
set atom 25016 type 4
set atom 237 type 4
set atom 6432 type 4
set atom 12627 type 4
set atom 18822 type 4
set atom 25017 type 4
set atom 238 type 1
set atom 6433 type 1
set atom 12628 type 1
set atom 18823 type 1
set atom 25018 type 1
set atom 239 type 1
set atom 6434 type 1
set atom 12629 type 1
set atom 18824 type 1
set atom 25019 type 1
set atom 240 type 1
set atom 6435 type 1
set atom 12630 type 1
set atom 18825 type 1
set atom 25020 type 1
set atom 241 type 4
set atom 6436 type 4
set atom 12631 type 4
set atom 18826 type 4
set atom 25021 type 4
set atom 242 type 4
set atom 6437 type 4
set atom 12632 type 4
set atom 18827 type 4
set atom 25022 type 4
set atom 243 type 4
set atom 6438 type 4
set atom 12633 type 4
set atom 18828 type 4
set atom 25023 type 4
set atom 244 type 4
set atom 6439 type 4
set atom 12634 type 4
set atom 18829 type 4
set atom 25024 type 4
set atom 245 type 4
set atom 6440 type 4
set atom 12635 type 4
set atom 18830 type 4
set atom 25025 type 4
set atom 246 type 4
set atom 6441 type 4
set atom 12636 type 4
set atom 18831 type 4
set atom 25026 type 4
set atom 247 type 4
set atom 6442 type 4
set atom 12637 type 4
set atom 18832 type 4
set atom 25027 type 4
set atom 248 type 3
set atom 6443 type 3
set atom 12638 type 3
set atom 18833 type 3
set atom 25028 type 3
set atom 249 type 3
set atom 6444 type 3
set atom 12639 type 3
set atom 18834 type 3
set atom 25029 type 3
set atom 250 type 4
set atom 6445 type 4
set atom 12640 type 4
set atom 18835 type 4
set atom 25030 type 4
set atom 251 type 4
set atom 6446 type 4
set atom 12641 type 4
set atom 18836 type 4
set atom 25031 type 4
set atom 252 type 4
set atom 6447 type 4
set atom 12642 type 4
set atom 18837 type 4
set atom 25032 type 4
set atom 253 type 4
set atom 6448 type 4
set atom 12643 type 4
set atom 18838 type 4
set atom 25033 type 4
set atom 254 type 4
set atom 6449 type 4
set atom 12644 type 4
set atom 18839 type 4
set atom 25034 type 4
set atom 255 type 4
set atom 6450 type 4
set atom 12645 type 4
set atom 18840 type 4
set atom 25035 type 4
set atom 256 type 4
set atom 6451 type 4
set atom 12646 type 4
set atom 18841 type 4
set atom 25036 type 4
set atom 257 type 4
set atom 6452 type 4
set atom 12647 type 4
set atom 18842 type 4
set atom 25037 type 4
set atom 258 type 4
set atom 6453 type 4
set atom 12648 type 4
set atom 18843 type 4
set atom 25038 type 4
set atom 259 type 4
set atom 6454 type 4
set atom 12649 type 4
set atom 18844 type 4
set atom 25039 type 4
set atom 260 type 1
set atom 6455 type 1
set atom 12650 type 1
set atom 18845 type 1
set atom 25040 type 1
set atom 261 type 1
set atom 6456 type 1
set atom 12651 type 1
set atom 18846 type 1
set atom 25041 type 1
set atom 262 type 4
set atom 6457 type 4
set atom 12652 type 4
set atom 18847 type 4
set atom 25042 type 4
set atom 263 type 1
set atom 6458 type 1
set atom 12653 type 1
set atom 18848 type 1
set atom 25043 type 1
set atom 264 type 4
set atom 6459 type 4
set atom 12654 type 4
set atom 18849 type 4
set atom 25044 type 4
set atom 265 type 4
set atom 6460 type 4
set atom 12655 type 4
set atom 18850 type 4
set atom 25045 type 4
set atom 266 type 4
set atom 6461 type 4
set atom 12656 type 4
set atom 18851 type 4
set atom 25046 type 4
set atom 267 type 4
set atom 6462 type 4
set atom 12657 type 4
set atom 18852 type 4
set atom 25047 type 4
set atom 268 type 4
set atom 6463 type 4
set atom 12658 type 4
set atom 18853 type 4
set atom 25048 type 4
set atom 269 type 4
set atom 6464 type 4
set atom 12659 type 4
set atom 18854 type 4
set atom 25049 type 4
set atom 270 type 4
set atom 6465 type 4
set atom 12660 type 4