###############################################################################
# Reference paper:                                                            #
# K. Kremer and G. S. Grest                                                   #
# Dynamics of entangled linear polymer melts: A molecular-dynamics simulation #
# J Chem Phys 92, 5057 (1990)                                                 #
###############################################################################

#######################################################
# Box and units  (use LJ units and period boundaries) #
#######################################################
units lj
atom_style angle #with stiffness

boundary        f f f

############################
# READ "Restart" data file #
############################
#read_restart

##########################
# READ "start" data file #
##########################
read_data ../../0_generate_initial_rosettes_conformations/Initial_conformation_replica_XXXreplicaXXX.dat
mass * 1.0

set atom 1*84502 type 1 # reset all atoms to type 1

##################################################################
# Pair interactions require lists of neighbours to be calculated #
##################################################################
neighbor 0.3 bin
neigh_modify every 1 delay 1 check yes one 3000
comm_modify mode multi

##############################################################
# Sample thermodynamic info  (temperature, energy, pressure) #
##############################################################
thermo 1000

###############################
# Stiffness term              #
# E = K * (1+cos(theta)), K>0 #
###############################
angle_style    cosine
angle_coeff 1 5.00 # Persistence length of 150nm

###################################################################
# Pair interaction between non-bonded atoms                       #
#                                                                 #
#  Lennard-Jones 12-6 potential with cutoff:                      #
#  potential E=4epsilon[ (sigma/r)^12 - (sigma/r)^6]  for r<r_cut #
#  r_cut =1.12246 = 2^(1/6) is the minimum of the potential       #
###################################################################
pair_style lj/cut 1.12246152962189

################################################################
#  pair_modify shift yes adds a constant to the potential such #
#  that E(r_cut)=0. Forces remains unchanged.                  #
################################################################
pair_modify     shift yes

######################################
#  pair_coeff for lj/cut, specify 4: #
#    * atom type interacting with    #
#    * atom type                     #
#    * epsilon (energy units)        #
#    * sigma (distance units)        #
######################################
# Radius of NORs particles of type 5 is 2.6 sigma
pair_coeff  *  * 1.0   1.0 1.12246152962189

#########################################################
# Pair interaction between bonded atoms                 #
#                                                       #
# Fene potential + Lennard Jones 12-6:                  #
#  E= - 0.5 K R0^2 ln[ 1- (r/R0)^2]                     #
#     + 4epsilon[ (sigma/r)^12 - (sigma/r)^6] + epsilon #
#########################################################
bond_style      fene

########################################
# For style fene, specify:             #
#   * bond type                        #
#   * K (energy/distance^2)            #
#   * R0 (distance)                    #
#   * epsilon (energy)  (LJ component) #
#   * sigma (distance)  (LJ component) #
########################################
bond_coeff   *     300.0     1.5     10.0       1.0

special_bonds fene #<=== I M P O R T A N T (new command)

##############################
# set timestep of integrator #
##############################
timestep 0.001

#######################################################
# Set up fixes                                        #
# use NVE ensemble                                    #
# Langevin integrator Tstart Tstop 1/friction rndseed #
# => sampling NVT ensamble                            #
#######################################################
fix 1 all nve #limit 0.1
fix 2 all langevin   1.0 1.0 2.0 XXXseedXXX

#########################################
# run integration for a number of steps #
#########################################
thermo_style   custom   step temp etotal

# Create the mitotic-like contacts

minimize 1.0e-4 1.0e-6 100000 100000

dump 1 all custom 10000 chrs10_system_preparation_mitotic_links_replica_XXXreplicaXXX.XYZ id type xu yu zu
dump_modify   1 format line "%d %d %.5f %.5f %.5f" sort id append yes

# Define the fix restraints bonds
fix tmp1 all restrain bond 7 21 0 1000 2.0
fix tmp2 all restrain bond 21 35 0 1000 2.0
fix tmp3 all restrain bond 35 49 0 1000 2.0
fix tmp4 all restrain bond 49 63 0 1000 2.0
fix tmp5 all restrain bond 63 77 0 1000 2.0
fix tmp6 all restrain bond 77 91 0 1000 2.0
fix tmp7 all restrain bond 91 105 0 1000 2.0
fix tmp8 all restrain bond 105 119 0 1000 2.0
fix tmp9 all restrain bond 119 133 0 1000 2.0
fix tmp10 all restrain bond 133 147 0 1000 2.0
fix tmp11 all restrain bond 147 161 0 1000 2.0
fix tmp12 all restrain bond 161 175 0 1000 2.0
fix tmp13 all restrain bond 175 189 0 1000 2.0
fix tmp14 all restrain bond 189 203 0 1000 2.0
fix tmp15 all restrain bond 203 217 0 1000 2.0
fix tmp16 all restrain bond 217 231 0 1000 2.0
fix tmp17 all restrain bond 231 245 0 1000 2.0
fix tmp18 all restrain bond 245 259 0 1000 2.0
fix tmp19 all restrain bond 259 273 0 1000 2.0
fix tmp20 all restrain bond 273 287 0 1000 2.0
fix tmp21 all restrain bond 287 301 0 1000 2.0
fix tmp22 all restrain bond 301 315 0 1000 2.0
fix tmp23 all restrain bond 315 329 0 1000 2.0
fix tmp24 all restrain bond 329 343 0 1000 2.0
fix tmp25 all restrain bond 343 357 0 1000 2.0
fix tmp26 all restrain bond 357 371 0 1000 2.0
fix tmp27 all restrain bond 371 385 0 1000 2.0
fix tmp28 all restrain bond 385 399 0 1000 2.0
fix tmp29 all restrain bond 399 413 0 1000 2.0
fix tmp30 all restrain bond 413 427 0 1000 2.0
fix tmp31 all restrain bond 427 441 0 1000 2.0
fix tmp32 all restrain bond 441 455 0 1000 2.0
fix tmp33 all restrain bond 455 469 0 1000 2.0
fix tmp34 all restrain bond 469 483 0 1000 2.0
fix tmp35 all restrain bond 483 497 0 1000 2.0
fix tmp36 all restrain bond 497 511 0 1000 2.0
fix tmp37 all restrain bond 511 525 0 1000 2.0
fix tmp38 all restrain bond 525 539 0 1000 2.0
fix tmp39 all restrain bond 539 553 0 1000 2.0
fix tmp40 all restrain bond 553 567 0 1000 2.0
fix tmp41 all restrain bond 567 581 0 1000 2.0
fix tmp42 all restrain bond 581 595 0 1000 2.0
fix tmp43 all restrain bond 595 609 0 1000 2.0
fix tmp44 all restrain bond 609 623 0 1000 2.0
fix tmp45 all restrain bond 623 637 0 1000 2.0
fix tmp46 all restrain bond 637 651 0 1000 2.0
fix tmp47 all restrain bond 651 665 0 1000 2.0
fix tmp48 all restrain bond 665 679 0 1000 2.0
fix tmp49 all restrain bond 679 693 0 1000 2.0
fix tmp50 all restrain bond 693 707 0 1000 2.0
fix tmp51 all restrain bond 707 721 0 1000 2.0
fix tmp52 all restrain bond 721 735 0 1000 2.0
fix tmp53 all restrain bond 735 749 0 1000 2.0
fix tmp54 all restrain bond 749 763 0 1000 2.0
fix tmp55 all restrain bond 763 777 0 1000 2.0
fix tmp56 all restrain bond 777 791 0 1000 2.0
fix tmp57 all restrain bond 791 805 0 1000 2.0
fix tmp58 all restrain bond 805 819 0 1000 2.0
fix tmp59 all restrain bond 819 833 0 1000 2.0
fix tmp60 all restrain bond 833 847 0 1000 2.0
fix tmp61 all restrain bond 847 861 0 1000 2.0
fix tmp62 all restrain bond 861 875 0 1000 2.0
fix tmp63 all restrain bond 875 889 0 1000 2.0
fix tmp64 all restrain bond 889 903 0 1000 2.0
fix tmp65 all restrain bond 903 917 0 1000 2.0
fix tmp66 all restrain bond 917 931 0 1000 2.0
fix tmp67 all restrain bond 931 945 0 1000 2.0
fix tmp68 all restrain bond 945 959 0 1000 2.0
fix tmp69 all restrain bond 959 973 0 1000 2.0
fix tmp70 all restrain bond 973 987 0 1000 2.0
fix tmp71 all restrain bond 987 1001 0 1000 2.0
fix tmp72 all restrain bond 1001 1015 0 1000 2.0
fix tmp73 all restrain bond 1015 1029 0 1000 2.0
fix tmp74 all restrain bond 1029 1043 0 1000 2.0
fix tmp75 all restrain bond 1043 1057 0 1000 2.0
fix tmp76 all restrain bond 1057 1071 0 1000 2.0
fix tmp77 all restrain bond 1071 1085 0 1000 2.0
fix tmp78 all restrain bond 1085 1099 0 1000 2.0
fix tmp79 all restrain bond 1099 1113 0 1000 2.0
fix tmp80 all restrain bond 1113 1127 0 1000 2.0
fix tmp81 all restrain bond 1127 1141 0 1000 2.0
fix tmp82 all restrain bond 1141 1155 0 1000 2.0
fix tmp83 all restrain bond 1155 1169 0 1000 2.0
fix tmp84 all restrain bond 1169 1183 0 1000 2.0
fix tmp85 all restrain bond 1183 1197 0 1000 2.0
fix tmp86 all restrain bond 1197 1211 0 1000 2.0
fix tmp87 all restrain bond 1211 1225 0 1000 2.0
fix tmp88 all restrain bond 1225 1239 0 1000 2.0
fix tmp89 all restrain bond 1239 1253 0 1000 2.0
fix tmp90 all restrain bond 1253 1267 0 1000 2.0
fix tmp91 all restrain bond 1267 1281 0 1000 2.0
fix tmp92 all restrain bond 1281 1295 0 1000 2.0
fix tmp93 all restrain bond 1295 1309 0 1000 2.0
fix tmp94 all restrain bond 1309 1323 0 1000 2.0
fix tmp95 all restrain bond 1323 1337 0 1000 2.0
fix tmp96 all restrain bond 1337 1351 0 1000 2.0
fix tmp97 all restrain bond 1351 1365 0 1000 2.0
fix tmp98 all restrain bond 1365 1379 0 1000 2.0
fix tmp99 all restrain bond 1379 1393 0 1000 2.0
fix tmp100 all restrain bond 1393 1407 0 1000 2.0
fix tmp101 all restrain bond 1407 1421 0 1000 2.0
fix tmp102 all restrain bond 1421 1435 0 1000 2.0
fix tmp103 all restrain bond 1435 1449 0 1000 2.0
fix tmp104 all restrain bond 1449 1463 0 1000 2.0
fix tmp105 all restrain bond 1463 1477 0 1000 2.0
fix tmp106 all restrain bond 1477 1491 0 1000 2.0
fix tmp107 all restrain bond 1491 1505 0 1000 2.0
fix tmp108 all restrain bond 1505 1519 0 1000 2.0
fix tmp109 all restrain bond 1519 1533 0 1000 2.0
fix tmp110 all restrain bond 1533 1547 0 1000 2.0
fix tmp111 all restrain bond 1547 1561 0 1000 2.0
fix tmp112 all restrain bond 1561 1575 0 1000 2.0
fix tmp113 all restrain bond 1575 1589 0 1000 2.0
fix tmp114 all restrain bond 1589 1603 0 1000 2.0
fix tmp115 all restrain bond 1603 1617 0 1000 2.0
fix tmp116 all restrain bond 1617 1631 0 1000 2.0
fix tmp117 all restrain bond 1631 1645 0 1000 2.0
fix tmp118 all restrain bond 1645 1659 0 1000 2.0
fix tmp119 all restrain bond 1659 1673 0 1000 2.0
fix tmp120 all restrain bond 1673 1687 0 1000 2.0
fix tmp121 all restrain bond 1687 1701 0 1000 2.0
fix tmp122 all restrain bond 1701 1715 0 1000 2.0
fix tmp123 all restrain bond 1715 1729 0 1000 2.0
fix tmp124 all restrain bond 1729 1743 0 1000 2.0
fix tmp125 all restrain bond 1743 1757 0 1000 2.0
fix tmp126 all restrain bond 1757 1771 0 1000 2.0
fix tmp127 all restrain bond 1771 1785 0 1000 2.0
fix tmp128 all restrain bond 1785 1799 0 1000 2.0
fix tmp129 all restrain bond 1799 1813 0 1000 2.0
fix tmp130 all restrain bond 1813 1827 0 1000 2.0
fix tmp131 all restrain bond 1827 1841 0 1000 2.0
fix tmp132 all restrain bond 1841 1855 0 1000 2.0
fix tmp133 all restrain bond 1855 1869 0 1000 2.0
fix tmp134 all restrain bond 1869 1883 0 1000 2.0
fix tmp135 all restrain bond 1883 1897 0 1000 2.0
fix tmp136 all restrain bond 1897 1911 0 1000 2.0
fix tmp137 all restrain bond 1911 1925 0 1000 2.0
fix tmp138 all restrain bond 1925 1939 0 1000 2.0
fix tmp139 all restrain bond 1939 1953 0 1000 2.0
fix tmp140 all restrain bond 1953 1967 0 1000 2.0
fix tmp141 all restrain bond 1967 1981 0 1000 2.0
fix tmp142 all restrain bond 1981 1995 0 1000 2.0
fix tmp143 all restrain bond 1995 2009 0 1000 2.0
fix tmp144 all restrain bond 2009 2023 0 1000 2.0
fix tmp145 all restrain bond 2023 2037 0 1000 2.0
fix tmp146 all restrain bond 2037 2051 0 1000 2.0
fix tmp147 all restrain bond 2051 2065 0 1000 2.0
fix tmp148 all restrain bond 2065 2079 0 1000 2.0
fix tmp149 all restrain bond 2079 2093 0 1000 2.0
fix tmp150 all restrain bond 2093 2107 0 1000 2.0
fix tmp151 all restrain bond 2107 2121 0 1000 2.0
fix tmp152 all restrain bond 2121 2135 0 1000 2.0
fix tmp153 all restrain bond 2135 2149 0 1000 2.0
fix tmp154 all restrain bond 2149 2163 0 1000 2.0
fix tmp155 all restrain bond 2163 2177 0 1000 2.0
fix tmp156 all restrain bond 2177 2191 0 1000 2.0
fix tmp157 all restrain bond 2191 2205 0 1000 2.0
fix tmp158 all restrain bond 2205 2219 0 1000 2.0
fix tmp159 all restrain bond 2219 2233 0 1000 2.0
fix tmp160 all restrain bond 2233 2247 0 1000 2.0
fix tmp161 all restrain bond 2247 2261 0 1000 2.0
fix tmp162 all restrain bond 2261 2275 0 1000 2.0
fix tmp163 all restrain bond 2275 2289 0 1000 2.0
fix tmp164 all restrain bond 2289 2303 0 1000 2.0
fix tmp165 all restrain bond 2303 2317 0 1000 2.0
fix tmp166 all restrain bond 2317 2331 0 1000 2.0
fix tmp167 all restrain bond 2331 2345 0 1000 2.0
fix tmp168 all restrain bond 2345 2359 0 1000 2.0
fix tmp169 all restrain bond 2359 2373 0 1000 2.0
fix tmp170 all restrain bond 2373 2387 0 1000 2.0
fix tmp171 all restrain bond 2387 2401 0 1000 2.0
fix tmp172 all restrain bond 2401 2415 0 1000 2.0
fix tmp173 all restrain bond 2415 2429 0 1000 2.0
fix tmp174 all restrain bond 2429 2443 0 1000 2.0
fix tmp175 all restrain bond 2443 2457 0 1000 2.0
fix tmp176 all restrain bond 2457 2471 0 1000 2.0
fix tmp177 all restrain bond 2471 2485 0 1000 2.0
fix tmp178 all restrain bond 2485 2499 0 1000 2.0
fix tmp179 all restrain bond 2499 2513 0 1000 2.0
fix tmp180 all restrain bond 2513 2527 0 1000 2.0
fix tmp181 all restrain bond 2527 2541 0 1000 2.0
fix tmp182 all restrain bond 2541 2555 0 1000 2.0
fix tmp183 all restrain bond 2555 2569 0 1000 2.0
fix tmp184 all restrain bond 2569 2583 0 1000 2.0
fix tmp185 all restrain bond 2583 2597 0 1000 2.0
fix tmp186 all restrain bond 2597 2611 0 1000 2.0
fix tmp187 all restrain bond 2611 2625 0 1000 2.0
fix tmp188 all restrain bond 2625 2639 0 1000 2.0
fix tmp189 all restrain bond 2639 2653 0 1000 2.0
fix tmp190 all restrain bond 2653 2667 0 1000 2.0
fix tmp191 all restrain bond 2667 2681 0 1000 2.0
fix tmp192 all restrain bond 2681 2695 0 1000 2.0
fix tmp193 all restrain bond 2695 2709 0 1000 2.0
fix tmp194 all restrain bond 2709 2723 0 1000 2.0
fix tmp195 all restrain bond 2723 2737 0 1000 2.0
fix tmp196 all restrain bond 2737 2751 0 1000 2.0
fix tmp197 all restrain bond 2751 2765 0 1000 2.0
fix tmp198 all restrain bond 2765 2779 0 1000 2.0
fix tmp199 all restrain bond 2779 2793 0 1000 2.0
fix tmp200 all restrain bond 2793 2807 0 1000 2.0
fix tmp201 all restrain bond 2807 2821 0 1000 2.0
fix tmp202 all restrain bond 2821 2835 0 1000 2.0
fix tmp203 all restrain bond 2835 2849 0 1000 2.0
fix tmp204 all restrain bond 2849 2863 0 1000 2.0
fix tmp205 all restrain bond 2863 2877 0 1000 2.0
fix tmp206 all restrain bond 2877 2891 0 1000 2.0
fix tmp207 all restrain bond 2891 2905 0 1000 2.0
fix tmp208 all restrain bond 2905 2919 0 1000 2.0
fix tmp209 all restrain bond 2919 2933 0 1000 2.0
fix tmp210 all restrain bond 2933 2947 0 1000 2.0
fix tmp211 all restrain bond 2947 2961 0 1000 2.0
fix tmp212 all restrain bond 2961 2975 0 1000 2.0
fix tmp213 all restrain bond 2975 2989 0 1000 2.0
fix tmp214 all restrain bond 2989 3003 0 1000 2.0
fix tmp215 all restrain bond 3003 3017 0 1000 2.0
fix tmp216 all restrain bond 3017 3031 0 1000 2.0
fix tmp217 all restrain bond 3031 3045 0 1000 2.0
fix tmp218 all restrain bond 3045 3059 0 1000 2.0
fix tmp219 all restrain bond 3059 3073 0 1000 2.0
fix tmp220 all restrain bond 3073 3087 0 1000 2.0
fix tmp221 all restrain bond 3087 3101 0 1000 2.0
fix tmp222 all restrain bond 3101 3115 0 1000 2.0
fix tmp223 all restrain bond 3115 3129 0 1000 2.0
fix tmp224 all restrain bond 3129 3143 0 1000 2.0
fix tmp225 all restrain bond 3143 3157 0 1000 2.0
fix tmp226 all restrain bond 3157 3171 0 1000 2.0
fix tmp227 all restrain bond 3171 3185 0 1000 2.0
fix tmp228 all restrain bond 3185 3199 0 1000 2.0
fix tmp229 all restrain bond 3199 3213 0 1000 2.0
fix tmp230 all restrain bond 3213 3227 0 1000 2.0
fix tmp231 all restrain bond 3227 3241 0 1000 2.0
fix tmp232 all restrain bond 3241 3255 0 1000 2.0
fix tmp233 all restrain bond 3255 3269 0 1000 2.0
fix tmp234 all restrain bond 3269 3283 0 1000 2.0
fix tmp235 all restrain bond 3283 3297 0 1000 2.0
fix tmp236 all restrain bond 3297 3311 0 1000 2.0
fix tmp237 all restrain bond 3311 3325 0 1000 2.0
fix tmp238 all restrain bond 3325 3339 0 1000 2.0
fix tmp239 all restrain bond 3339 3353 0 1000 2.0
fix tmp240 all restrain bond 3353 3367 0 1000 2.0
fix tmp241 all restrain bond 3367 3381 0 1000 2.0
fix tmp242 all restrain bond 3381 3395 0 1000 2.0
fix tmp243 all restrain bond 3395 3409 0 1000 2.0
fix tmp244 all restrain bond 3409 3423 0 1000 2.0
fix tmp245 all restrain bond 3423 3437 0 1000 2.0
fix tmp246 all restrain bond 3437 3451 0 1000 2.0
fix tmp247 all restrain bond 3451 3465 0 1000 2.0
fix tmp248 all restrain bond 3465 3479 0 1000 2.0
fix tmp249 all restrain bond 3479 3493 0 1000 2.0
fix tmp250 all restrain bond 3493 3507 0 1000 2.0
fix tmp251 all restrain bond 3507 3521 0 1000 2.0
fix tmp252 all restrain bond 3521 3535 0 1000 2.0
fix tmp253 all restrain bond 3535 3549 0 1000 2.0
fix tmp254 all restrain bond 3549 3563 0 1000 2.0
fix tmp255 all restrain bond 3563 3577 0 1000 2.0
fix tmp256 all restrain bond 3577 3591 0 1000 2.0
fix tmp257 all restrain bond 3591 3605 0 1000 2.0
fix tmp258 all restrain bond 3605 3619 0 1000 2.0
fix tmp259 all restrain bond 3619 3633 0 1000 2.0
fix tmp260 all restrain bond 3633 3647 0 1000 2.0
fix tmp261 all restrain bond 3647 3661 0 1000 2.0
fix tmp262 all restrain bond 3661 3675 0 1000 2.0
fix tmp263 all restrain bond 3675 3689 0 1000 2.0
fix tmp264 all restrain bond 3689 3703 0 1000 2.0
fix tmp265 all restrain bond 3703 3717 0 1000 2.0
fix tmp266 all restrain bond 3717 3731 0 1000 2.0
fix tmp267 all restrain bond 3731 3745 0 1000 2.0
fix tmp268 all restrain bond 3745 3759 0 1000 2.0
fix tmp269 all restrain bond 3759 3773 0 1000 2.0
fix tmp270 all restrain bond 3773 3787 0 1000 2.0
fix tmp271 all restrain bond 3787 3801 0 1000 2.0
fix tmp272 all restrain bond 3801 3815 0 1000 2.0
fix tmp273 all restrain bond 3815 3829 0 1000 2.0
fix tmp274 all restrain bond 3829 3843 0 1000 2.0
fix tmp275 all restrain bond 3843 3857 0 1000 2.0
fix tmp276 all restrain bond 3857 3871 0 1000 2.0
fix tmp277 all restrain bond 3871 3885 0 1000 2.0
fix tmp278 all restrain bond 3885 3899 0 1000 2.0
fix tmp279 all restrain bond 3899 3913 0 1000 2.0
fix tmp280 all restrain bond 3913 3927 0 1000 2.0
fix tmp281 all restrain bond 3927 3941 0 1000 2.0
fix tmp282 all restrain bond 3941 3955 0 1000 2.0
fix tmp283 all restrain bond 3955 3969 0 1000 2.0
fix tmp284 all restrain bond 3969 3983 0 1000 2.0
fix tmp285 all restrain bond 3983 3997 0 1000 2.0
fix tmp286 all restrain bond 3997 4011 0 1000 2.0
fix tmp287 all restrain bond 4011 4025 0 1000 2.0
fix tmp288 all restrain bond 4025 4039 0 1000 2.0
fix tmp289 all restrain bond 4039 4053 0 1000 2.0
fix tmp290 all restrain bond 4053 4067 0 1000 2.0
fix tmp291 all restrain bond 4067 4081 0 1000 2.0
fix tmp292 all restrain bond 4081 4095 0 1000 2.0
fix tmp293 all restrain bond 4095 4109 0 1000 2.0
fix tmp294 all restrain bond 4109 4123 0 1000 2.0
fix tmp295 all restrain bond 4123 4137 0 1000 2.0
fix tmp296 all restrain bond 4137 4151 0 1000 2.0
fix tmp297 all restrain bond 4151 4165 0 1000 2.0
fix tmp298 all restrain bond 4165 4179 0 1000 2.0
fix tmp299 all restrain bond 4179 4193 0 1000 2.0
fix tmp300 all restrain bond 4193 4207 0 1000 2.0
fix tmp301 all restrain bond 4207 4221 0 1000 2.0
fix tmp302 all restrain bond 4221 4235 0 1000 2.0
fix tmp303 all restrain bond 4235 4249 0 1000 2.0
fix tmp304 all restrain bond 4249 4263 0 1000 2.0
fix tmp305 all restrain bond 4263 4277 0 1000 2.0
fix tmp306 all restrain bond 4277 4291 0 1000 2.0
fix tmp307 all restrain bond 4291 4305 0 1000 2.0
fix tmp308 all restrain bond 4305 4319 0 1000 2.0
fix tmp309 all restrain bond 4319 4333 0 1000 2.0
fix tmp310 all restrain bond 4333 4347 0 1000 2.0
fix tmp311 all restrain bond 4347 4361 0 1000 2.0
fix tmp312 all restrain bond 4361 4375 0 1000 2.0
fix tmp313 all restrain bond 4375 4389 0 1000 2.0
fix tmp314 all restrain bond 4389 4403 0 1000 2.0
fix tmp315 all restrain bond 4403 4417 0 1000 2.0
fix tmp316 all restrain bond 4417 4431 0 1000 2.0
fix tmp317 all restrain bond 4431 4445 0 1000 2.0
fix tmp318 all restrain bond 4445 4459 0 1000 2.0
fix tmp319 all restrain bond 4459 4473 0 1000 2.0
fix tmp320 all restrain bond 4473 4487 0 1000 2.0
fix tmp321 all restrain bond 4487 4501 0 1000 2.0
fix tmp322 all restrain bond 4501 4515 0 1000 2.0
fix tmp323 all restrain bond 4515 4529 0 1000 2.0
fix tmp324 all restrain bond 4529 4543 0 1000 2.0
fix tmp325 all restrain bond 4543 4557 0 1000 2.0
fix tmp326 all restrain bond 4557 4571 0 1000 2.0
fix tmp327 all restrain bond 4571 4585 0 1000 2.0
fix tmp328 all restrain bond 4585 4599 0 1000 2.0
fix tmp329 all restrain bond 4599 4613 0 1000 2.0
fix tmp330 all restrain bond 4613 4627 0 1000 2.0
fix tmp331 all restrain bond 4627 4641 0 1000 2.0
fix tmp332 all restrain bond 4641 4655 0 1000 2.0
fix tmp333 all restrain bond 4655 4669 0 1000 2.0
fix tmp334 all restrain bond 4669 4683 0 1000 2.0
fix tmp335 all restrain bond 4683 4697 0 1000 2.0
fix tmp336 all restrain bond 4697 4711 0 1000 2.0
fix tmp337 all restrain bond 4711 4725 0 1000 2.0
fix tmp338 all restrain bond 4725 4739 0 1000 2.0
fix tmp339 all restrain bond 4739 4753 0 1000 2.0
fix tmp340 all restrain bond 4753 4767 0 1000 2.0
fix tmp341 all restrain bond 4767 4781 0 1000 2.0
fix tmp342 all restrain bond 4781 4795 0 1000 2.0
fix tmp343 all restrain bond 4795 4809 0 1000 2.0
fix tmp344 all restrain bond 4809 4823 0 1000 2.0
fix tmp345 all restrain bond 4823 4837 0 1000 2.0
fix tmp346 all restrain bond 4837 4851 0 1000 2.0
fix tmp347 all restrain bond 4851 4865 0 1000 2.0
fix tmp348 all restrain bond 4865 4879 0 1000 2.0
fix tmp349 all restrain bond 4879 4893 0 1000 2.0
fix tmp350 all restrain bond 4893 4907 0 1000 2.0
fix tmp351 all restrain bond 4907 4921 0 1000 2.0
fix tmp352 all restrain bond 4921 4935 0 1000 2.0
fix tmp353 all restrain bond 4935 4949 0 1000 2.0
fix tmp354 all restrain bond 4949 4963 0 1000 2.0
fix tmp355 all restrain bond 4963 4977 0 1000 2.0
fix tmp356 all restrain bond 4977 4991 0 1000 2.0
fix tmp357 all restrain bond 4991 5005 0 1000 2.0
fix tmp358 all restrain bond 5005 5019 0 1000 2.0
fix tmp359 all restrain bond 5019 5033 0 1000 2.0
fix tmp360 all restrain bond 5033 5047 0 1000 2.0
fix tmp361 all restrain bond 5047 5061 0 1000 2.0
fix tmp362 all restrain bond 5061 5075 0 1000 2.0
fix tmp363 all restrain bond 5075 5089 0 1000 2.0
fix tmp364 all restrain bond 5089 5103 0 1000 2.0
fix tmp365 all restrain bond 5103 5117 0 1000 2.0
fix tmp366 all restrain bond 5117 5131 0 1000 2.0
fix tmp367 all restrain bond 5131 5145 0 1000 2.0
fix tmp368 all restrain bond 5145 5159 0 1000 2.0
fix tmp369 all restrain bond 5159 5173 0 1000 2.0
fix tmp370 all restrain bond 5173 5187 0 1000 2.0
fix tmp371 all restrain bond 5187 5201 0 1000 2.0
fix tmp372 all restrain bond 5201 5215 0 1000 2.0
fix tmp373 all restrain bond 5215 5229 0 1000 2.0
fix tmp374 all restrain bond 5229 5243 0 1000 2.0
fix tmp375 all restrain bond 5243 5257 0 1000 2.0
fix tmp376 all restrain bond 5257 5271 0 1000 2.0
fix tmp377 all restrain bond 5271 5285 0 1000 2.0
fix tmp378 all restrain bond 5285 5299 0 1000 2.0
fix tmp379 all restrain bond 5299 5313 0 1000 2.0
fix tmp380 all restrain bond 5313 5327 0 1000 2.0
fix tmp381 all restrain bond 5327 5341 0 1000 2.0
fix tmp382 all restrain bond 5341 5355 0 1000 2.0
fix tmp383 all restrain bond 5355 5369 0 1000 2.0
fix tmp384 all restrain bond 5369 5383 0 1000 2.0
fix tmp385 all restrain bond 5383 5397 0 1000 2.0
fix tmp386 all restrain bond 5397 5411 0 1000 2.0
fix tmp387 all restrain bond 5411 5425 0 1000 2.0
fix tmp388 all restrain bond 5425 5439 0 1000 2.0
fix tmp389 all restrain bond 5439 5453 0 1000 2.0
fix tmp390 all restrain bond 5453 5467 0 1000 2.0
fix tmp391 all restrain bond 5467 5481 0 1000 2.0
fix tmp392 all restrain bond 5481 5495 0 1000 2.0
fix tmp393 all restrain bond 5495 5509 0 1000 2.0
fix tmp394 all restrain bond 5509 5523 0 1000 2.0
fix tmp395 all restrain bond 5523 5537 0 1000 2.0
fix tmp396 all restrain bond 5537 5551 0 1000 2.0
fix tmp397 all restrain bond 5551 5565 0 1000 2.0
fix tmp398 all restrain bond 5565 5579 0 1000 2.0
fix tmp399 all restrain bond 5579 5593 0 1000 2.0
fix tmp400 all restrain bond 5593 5607 0 1000 2.0
fix tmp401 all restrain bond 5607 5621 0 1000 2.0
fix tmp402 all restrain bond 5621 5635 0 1000 2.0
fix tmp403 all restrain bond 5635 5649 0 1000 2.0
fix tmp404 all restrain bond 5649 5663 0 1000 2.0
fix tmp405 all restrain bond 5663 5677 0 1000 2.0
fix tmp406 all restrain bond 5677 5691 0 1000 2.0
fix tmp407 all restrain bond 5691 5705 0 1000 2.0
fix tmp408 all restrain bond 5705 5719 0 1000 2.0
fix tmp409 all restrain bond 5719 5733 0 1000 2.0
fix tmp410 all restrain bond 5733 5747 0 1000 2.0
fix tmp411 all restrain bond 5747 5761 0 1000 2.0
fix tmp412 all restrain bond 5761 5775 0 1000 2.0
fix tmp413 all restrain bond 5775 5789 0 1000 2.0
fix tmp414 all restrain bond 5789 5803 0 1000 2.0
fix tmp415 all restrain bond 5803 5817 0 1000 2.0
fix tmp416 all restrain bond 5817 5831 0 1000 2.0
fix tmp417 all restrain bond 5831 5845 0 1000 2.0
fix tmp418 all restrain bond 5845 5859 0 1000 2.0
fix tmp419 all restrain bond 5859 5873 0 1000 2.0
fix tmp420 all restrain bond 5873 5887 0 1000 2.0
fix tmp421 all restrain bond 5887 5901 0 1000 2.0
fix tmp422 all restrain bond 5901 5915 0 1000 2.0
fix tmp423 all restrain bond 5915 5929 0 1000 2.0
fix tmp424 all restrain bond 5929 5943 0 1000 2.0
fix tmp425 all restrain bond 5943 5957 0 1000 2.0
fix tmp426 all restrain bond 5957 5971 0 1000 2.0
fix tmp427 all restrain bond 5971 5985 0 1000 2.0
fix tmp428 all restrain bond 5985 5999 0 1000 2.0
fix tmp429 all restrain bond 5999 6013 0 1000 2.0
fix tmp430 all restrain bond 6013 6027 0 1000 2.0
fix tmp431 all restrain bond 6027 6041 0 1000 2.0
fix tmp432 all restrain bond 6041 6055 0 1000 2.0
fix tmp433 all restrain bond 6055 6069 0 1000 2.0
fix tmp434 all restrain bond 6069 6083 0 1000 2.0
fix tmp435 all restrain bond 6083 6097 0 1000 2.0
fix tmp436 all restrain bond 6097 6111 0 1000 2.0
fix tmp437 all restrain bond 6111 6125 0 1000 2.0
fix tmp438 all restrain bond 6125 6139 0 1000 2.0
fix tmp439 all restrain bond 6139 6153 0 1000 2.0
fix tmp440 all restrain bond 6153 6167 0 1000 2.0
fix tmp441 all restrain bond 6167 6181 0 1000 2.0
fix tmp442 all restrain bond 6181 6195 0 1000 2.0
fix tmp443 all restrain bond 6195 6209 0 1000 2.0
fix tmp444 all restrain bond 6209 6223 0 1000 2.0
fix tmp445 all restrain bond 6223 6237 0 1000 2.0
fix tmp446 all restrain bond 6237 6251 0 1000 2.0
fix tmp447 all restrain bond 6251 6265 0 1000 2.0
fix tmp448 all restrain bond 6265 6279 0 1000 2.0
fix tmp449 all restrain bond 6279 6293 0 1000 2.0
fix tmp450 all restrain bond 6293 6307 0 1000 2.0
fix tmp451 all restrain bond 6307 6321 0 1000 2.0
fix tmp452 all restrain bond 6321 6335 0 1000 2.0
fix tmp453 all restrain bond 6335 6349 0 1000 2.0
fix tmp454 all restrain bond 6349 6363 0 1000 2.0
fix tmp455 all restrain bond 6363 6377 0 1000 2.0
fix tmp456 all restrain bond 6377 6391 0 1000 2.0
fix tmp457 all restrain bond 6391 6405 0 1000 2.0
fix tmp458 all restrain bond 6405 6419 0 1000 2.0
fix tmp459 all restrain bond 6419 6433 0 1000 2.0
fix tmp460 all restrain bond 6433 6447 0 1000 2.0
fix tmp461 all restrain bond 6447 6461 0 1000 2.0
fix tmp462 all restrain bond 6461 6475 0 1000 2.0
fix tmp463 all restrain bond 6475 6489 0 1000 2.0
fix tmp464 all restrain bond 6489 6503 0 1000 2.0
fix tmp465 all restrain bond 6503 6517 0 1000 2.0
fix tmp466 all restrain bond 6517 6531 0 1000 2.0
fix tmp467 all restrain bond 6531 6545 0 1000 2.0
fix tmp468 all restrain bond 6545 6559 0 1000 2.0
fix tmp469 all restrain bond 6559 6573 0 1000 2.0
fix tmp470 all restrain bond 6573 6587 0 1000 2.0
fix tmp471 all restrain bond 6587 6601 0 1000 2.0
fix tmp472 all restrain bond 6601 6615 0 1000 2.0
fix tmp473 all restrain bond 6615 6629 0 1000 2.0
fix tmp474 all restrain bond 6629 6643 0 1000 2.0
fix tmp475 all restrain bond 6643 6657 0 1000 2.0
fix tmp476 all restrain bond 6657 6671 0 1000 2.0
fix tmp477 all restrain bond 6671 6685 0 1000 2.0
fix tmp478 all restrain bond 6685 6699 0 1000 2.0
fix tmp479 all restrain bond 6699 6713 0 1000 2.0
fix tmp480 all restrain bond 6713 6727 0 1000 2.0
fix tmp481 all restrain bond 6727 6741 0 1000 2.0
fix tmp482 all restrain bond 6741 6755 0 1000 2.0
fix tmp483 all restrain bond 6755 6769 0 1000 2.0
fix tmp484 all restrain bond 6769 6783 0 1000 2.0
fix tmp485 all restrain bond 6783 6797 0 1000 2.0
fix tmp486 all restrain bond 6797 6811 0 1000 2.0
fix tmp487 all restrain bond 6811 6825 0 1000 2.0
fix tmp488 all restrain bond 6825 6839 0 1000 2.0
fix tmp489 all restrain bond 6839 6853 0 1000 2.0
fix tmp490 all restrain bond 6853 6867 0 1000 2.0
fix tmp491 all restrain bond 6867 6881 0 1000 2.0
fix tmp492 all restrain bond 6881 6895 0 1000 2.0
fix tmp493 all restrain bond 6895 6909 0 1000 2.0
fix tmp494 all restrain bond 6909 6923 0 1000 2.0
fix tmp495 all restrain bond 6923 6937 0 1000 2.0
fix tmp496 all restrain bond 6937 6951 0 1000 2.0
fix tmp497 all restrain bond 6951 6965 0 1000 2.0
fix tmp498 all restrain bond 6965 6979 0 1000 2.0
fix tmp499 all restrain bond 6979 6993 0 1000 2.0
fix tmp500 all restrain bond 6993 7007 0 1000 2.0
fix tmp501 all restrain bond 7007 7021 0 1000 2.0
fix tmp502 all restrain bond 7021 7035 0 1000 2.0
fix tmp503 all restrain bond 7035 7049 0 1000 2.0
fix tmp504 all restrain bond 7049 7063 0 1000 2.0
fix tmp505 all restrain bond 7063 7077 0 1000 2.0
fix tmp506 all restrain bond 7077 7091 0 1000 2.0
fix tmp507 all restrain bond 7091 7105 0 1000 2.0
fix tmp508 all restrain bond 7105 7119 0 1000 2.0
fix tmp509 all restrain bond 7119 7133 0 1000 2.0
fix tmp510 all restrain bond 7133 7147 0 1000 2.0