###############################################################################
# Reference paper:                                                            #
# K. Kremer and G. S. Grest                                                   #
# Dynamics of entangled linear polymer melts: A molecular-dynamics simulation #
# J Chem Phys 92, 5057 (1990)                                                 #
###############################################################################

#######################################################
# Box and units  (use LJ units and period boundaries) #
#######################################################
units lj
atom_style angle #with stiffness

boundary        f f f

############################
# READ "Restart" data file #
############################
#read_restart

##########################
# READ "start" data file #
##########################
read_data ../../../4_inflate_NADs_particles_vshape_from_parallel_pulling_case/replica_XXXreplicaXXX_radius_XXXradiusXXX/4_inflate_NADs_particles_replica_XXXreplicaXXX.txt
mass * 1.0

# Set atom types depending on Daniel's chromatin states:
# 1=undetermined
# 2=constitutuve heterochromatin 
# 3=facultative  heterochromatin
# 4=active/null
set atom 1 type 4
set atom 2 type 4
set atom 3 type 4
set atom 4 type 3
set atom 5 type 3
set atom 6 type 1
set atom 7 type 4
set atom 8 type 4
set atom 9 type 4
set atom 10 type 1
set atom 11 type 1
set atom 12 type 1
set atom 13 type 4
set atom 14 type 3
set atom 15 type 3
set atom 16 type 4
set atom 17 type 4
set atom 18 type 4
set atom 19 type 4
set atom 20 type 4
set atom 21 type 1
set atom 22 type 4
set atom 23 type 4
set atom 24 type 4
set atom 25 type 4
set atom 26 type 4
set atom 27 type 3
set atom 28 type 4
set atom 29 type 3
set atom 30 type 4
set atom 31 type 4
set atom 32 type 4
set atom 33 type 4
set atom 34 type 4
set atom 35 type 4
set atom 36 type 4
set atom 37 type 4
set atom 38 type 3
set atom 39 type 4
set atom 40 type 4
set atom 41 type 1
set atom 42 type 1
set atom 43 type 4
set atom 44 type 1
set atom 45 type 4
set atom 46 type 4
set atom 47 type 3
set atom 48 type 4
set atom 49 type 4
set atom 50 type 3
set atom 51 type 4
set atom 52 type 3
set atom 53 type 4
set atom 54 type 4
set atom 55 type 4
set atom 56 type 3
set atom 57 type 1
set atom 58 type 4
set atom 59 type 1
set atom 60 type 4
set atom 61 type 1
set atom 62 type 4
set atom 63 type 4
set atom 64 type 4
set atom 65 type 4
set atom 66 type 4
set atom 67 type 4
set atom 68 type 4
set atom 69 type 4
set atom 70 type 3
set atom 71 type 3
set atom 72 type 1
set atom 73 type 1
set atom 74 type 4
set atom 75 type 4
set atom 76 type 4
set atom 77 type 4
set atom 78 type 1
set atom 79 type 4
set atom 80 type 4
set atom 81 type 4
set atom 82 type 3
set atom 83 type 4
set atom 84 type 4
set atom 85 type 4
set atom 86 type 4
set atom 87 type 4
set atom 88 type 4
set atom 89 type 1
set atom 90 type 4
set atom 91 type 4
set atom 92 type 4
set atom 93 type 4
set atom 94 type 4
set atom 95 type 4
set atom 96 type 4
set atom 97 type 1
set atom 98 type 4
set atom 99 type 4
set atom 100 type 4
set atom 101 type 4
set atom 102 type 4
set atom 103 type 4
set atom 104 type 3
set atom 105 type 4
set atom 106 type 4
set atom 107 type 1
set atom 108 type 4
set atom 109 type 4
set atom 110 type 4
set atom 111 type 4
set atom 112 type 1
set atom 113 type 4
set atom 114 type 4
set atom 115 type 4
set atom 116 type 4
set atom 117 type 4
set atom 118 type 4
set atom 119 type 4
set atom 120 type 3
set atom 121 type 4
set atom 122 type 4
set atom 123 type 3
set atom 124 type 3
set atom 125 type 4
set atom 126 type 1
set atom 127 type 1
set atom 128 type 1
set atom 129 type 1
set atom 130 type 4
set atom 131 type 4
set atom 132 type 4
set atom 133 type 4
set atom 134 type 1
set atom 135 type 4
set atom 136 type 4
set atom 137 type 4
set atom 138 type 4
set atom 139 type 3
set atom 140 type 3
set atom 141 type 3
set atom 142 type 4
set atom 143 type 1
set atom 144 type 4
set atom 145 type 2
set atom 146 type 4
set atom 147 type 1
set atom 148 type 4
set atom 149 type 4
set atom 150 type 4
set atom 151 type 4
set atom 152 type 4
set atom 153 type 1
set atom 154 type 3
set atom 155 type 3
set atom 156 type 3
set atom 157 type 4
set atom 158 type 4
set atom 159 type 4
set atom 160 type 4
set atom 161 type 3
set atom 162 type 4
set atom 163 type 3
set atom 164 type 4
set atom 165 type 4
set atom 166 type 4
set atom 167 type 4
set atom 168 type 4
set atom 169 type 3
set atom 170 type 4
set atom 171 type 4
set atom 172 type 4
set atom 173 type 4
set atom 174 type 4
set atom 175 type 4
set atom 176 type 4
set atom 177 type 4
set atom 178 type 1
set atom 179 type 4
set atom 180 type 4
set atom 181 type 4
set atom 182 type 3
set atom 183 type 3
set atom 184 type 4
set atom 185 type 1
set atom 186 type 3
set atom 187 type 4
set atom 188 type 1
set atom 189 type 4
set atom 190 type 4
set atom 191 type 4
set atom 192 type 4
set atom 193 type 4
set atom 194 type 4
set atom 195 type 3
set atom 196 type 4
set atom 197 type 4
set atom 198 type 4
set atom 199 type 4
set atom 200 type 4
set atom 201 type 4
set atom 202 type 3
set atom 203 type 3
set atom 204 type 3
set atom 205 type 4
set atom 206 type 4
set atom 207 type 3
set atom 208 type 4
set atom 209 type 4
set atom 210 type 4
set atom 211 type 4
set atom 212 type 4
set atom 213 type 4
set atom 214 type 4
set atom 215 type 4
set atom 216 type 1
set atom 217 type 4
set atom 218 type 4
set atom 219 type 1
set atom 220 type 4
set atom 221 type 4
set atom 222 type 3
set atom 223 type 4
set atom 224 type 4
set atom 225 type 4
set atom 226 type 4
set atom 227 type 4
set atom 228 type 1
set atom 229 type 4
set atom 230 type 4
set atom 231 type 4
set atom 232 type 1
set atom 233 type 4
set atom 234 type 4
set atom 235 type 4
set atom 236 type 4
set atom 237 type 4
set atom 238 type 4
set atom 239 type 1
set atom 240 type 4
set atom 241 type 1
set atom 242 type 1
set atom 243 type 4
set atom 244 type 4
set atom 245 type 1
set atom 246 type 4
set atom 247 type 4
set atom 248 type 1
set atom 249 type 4
set atom 250 type 3
set atom 251 type 4
set atom 252 type 4
set atom 253 type 4
set atom 254 type 4
set atom 255 type 4
set atom 256 type 1
set atom 257 type 4
set atom 258 type 4
set atom 259 type 4
set atom 260 type 1
set atom 261 type 4
set atom 262 type 4
set atom 263 type 4
set atom 264 type 4
set atom 265 type 4
set atom 266 type 4
set atom 267 type 4
set atom 268 type 4
set atom 269 type 1
set atom 270 type 4
set atom 271 type 4
set atom 272 type 4
set atom 273 type 4
set atom 274 type 4
set atom 275 type 4
set atom 276 type 4
set atom 277 type 4
set atom 278 type 4
set atom 279 type 4
set atom 280 type 4
set atom 281 type 4
set atom 282 type 4
set atom 283 type 4
set atom 284 type 1
set atom 285 type 4
set atom 286 type 3
set atom 287 type 3
set atom 288 type 4
set atom 289 type 4
set atom 290 type 4
set atom 291 type 3
set atom 292 type 4
set atom 293 type 4
set atom 294 type 4
set atom 295 type 4
set atom 296 type 4
set atom 297 type 4
set atom 298 type 4
set atom 299 type 4
set atom 300 type 4
set atom 301 type 4
set atom 302 type 1
set atom 303 type 4
set atom 304 type 4
set atom 305 type 4
set atom 306 type 4
set atom 307 type 4
set atom 308 type 3
set atom 309 type 3
set atom 310 type 3
set atom 311 type 4
set atom 312 type 4
set atom 313 type 4
set atom 314 type 1
set atom 315 type 4
set atom 316 type 4
set atom 317 type 4
set atom 318 type 4
set atom 319 type 3
set atom 320 type 3
set atom 321 type 3
set atom 322 type 1
set atom 323 type 4
set atom 324 type 3
set atom 325 type 1
set atom 326 type 4
set atom 327 type 4
set atom 328 type 4
set atom 329 type 3
set atom 330 type 3
set atom 331 type 4
set atom 332 type 4
set atom 333 type 4
set atom 334 type 4
set atom 335 type 4
set atom 336 type 4
set atom 337 type 4
set atom 338 type 4
set atom 339 type 4
set atom 340 type 4
set atom 341 type 4
set atom 342 type 4
set atom 343 type 4
set atom 344 type 1
set atom 345 type 1
set atom 346 type 4
set atom 347 type 4
set atom 348 type 4
set atom 349 type 1
set atom 350 type 4
set atom 351 type 4
set atom 352 type 4
set atom 353 type 4
set atom 354 type 4
set atom 355 type 4
set atom 356 type 4
set atom 357 type 4
set atom 358 type 4
set atom 359 type 4
set atom 360 type 4
set atom 361 type 3
set atom 362 type 3
set atom 363 type 4
set atom 364 type 1
set atom 365 type 4
set atom 366 type 4
set atom 367 type 4
set atom 368 type 1
set atom 369 type 3
set atom 370 type 4
set atom 371 type 4
set atom 372 type 4
set atom 373 type 1
set atom 374 type 3
set atom 375 type 3
set atom 376 type 4
set atom 377 type 4
set atom 378 type 1
set atom 379 type 3
set atom 380 type 3
set atom 381 type 4
set atom 382 type 4
set atom 383 type 4
set atom 384 type 1
set atom 385 type 4
set atom 386 type 4
set atom 387 type 4
set atom 388 type 4
set atom 389 type 4
set atom 390 type 4
set atom 391 type 1
set atom 392 type 3
set atom 393 type 1
set atom 394 type 1
set atom 395 type 4
set atom 396 type 4
set atom 397 type 1
set atom 398 type 4
set atom 399 type 4
set atom 400 type 4
set atom 401 type 4
set atom 402 type 4
set atom 403 type 3
set atom 404 type 3
set atom 405 type 1
set atom 406 type 4
set atom 407 type 1
set atom 408 type 3
set atom 409 type 4
set atom 410 type 4
set atom 411 type 4
set atom 412 type 4
set atom 413 type 4
set atom 414 type 4
set atom 415 type 4
set atom 416 type 3
set atom 417 type 4
set atom 418 type 4
set atom 419 type 4
set atom 420 type 1
set atom 421 type 4
set atom 422 type 1
set atom 423 type 4
set atom 424 type 3
set atom 425 type 3
set atom 426 type 4
set atom 427 type 4
set atom 428 type 1
set atom 429 type 4
set atom 430 type 3
set atom 431 type 4
set atom 432 type 4
set atom 433 type 4
set atom 434 type 3
set atom 435 type 4
set atom 436 type 4
set atom 437 type 1
set atom 438 type 4
set atom 439 type 4
set atom 440 type 1
set atom 441 type 4
set atom 442 type 1
set atom 443 type 1
set atom 444 type 4
set atom 445 type 4
set atom 446 type 4
set atom 447 type 1
set atom 448 type 4
set atom 449 type 4
set atom 450 type 1
set atom 451 type 4
set atom 452 type 1
set atom 453 type 4
set atom 454 type 4
set atom 455 type 4
set atom 456 type 4
set atom 457 type 4
set atom 458 type 4
set atom 459 type 4
set atom 460 type 1
set atom 461 type 3
set atom 462 type 4
set atom 463 type 1
set atom 464 type 4
set atom 465 type 4
set atom 466 type 4
set atom 467 type 4
set atom 468 type 4
set atom 469 type 4
set atom 470 type 4
set atom 471 type 4
set atom 472 type 4
set atom 473 type 4
set atom 474 type 4
set atom 475 type 1
set atom 476 type 4
set atom 477 type 4
set atom 478 type 4
set atom 479 type 4
set atom 480 type 4
set atom 481 type 4
set atom 482 type 2
set atom 483 type 4
set atom 484 type 4
set atom 485 type 4
set atom 486 type 1
set atom 487 type 3
set atom 488 type 4
set atom 489 type 4
set atom 490 type 4
set atom 491 type 4
set atom 492 type 4
set atom 493 type 4
set atom 494 type 4
set atom 495 type 4
set atom 496 type 4
set atom 497 type 4
set atom 498 type 4
set atom 499 type 1
set atom 500 type 1
set atom 501 type 4
set atom 502 type 4
set atom 503 type 4
set atom 504 type 4
set atom 505 type 4
set atom 506 type 3
set atom 507 type 4
set atom 508 type 4
set atom 509 type 4
set atom 510 type 4
set atom 511 type 4
set atom 512 type 4
set atom 513 type 3
set atom 514 type 3
set atom 515 type 3
set atom 516 type 4
set atom 517 type 4
set atom 518 type 3
set atom 519 type 1
set atom 520 type 4
set atom 521 type 1
set atom 522 type 4
set atom 523 type 1
set atom 524 type 4
set atom 525 type 4
set atom 526 type 4
set atom 527 type 4
set atom 528 type 4
set atom 529 type 4
set atom 530 type 4
set atom 531 type 3
set atom 532 type 4
set atom 533 type 4
set atom 534 type 3
set atom 535 type 4
set atom 536 type 4
set atom 537 type 4
set atom 538 type 4
set atom 539 type 4
set atom 540 type 4
set atom 541 type 4
set atom 542 type 4
set atom 543 type 4
set atom 544 type 3
set atom 545 type 4
set atom 546 type 4
set atom 547 type 4
set atom 548 type 4
set atom 549 type 4
set atom 550 type 4
set atom 551 type 4
set atom 552 type 1
set atom 553 type 4
set atom 554 type 4
set atom 555 type 4
set atom 556 type 3
set atom 557 type 4
set atom 558 type 4
set atom 559 type 1
set atom 560 type 4
set atom 561 type 4
set atom 562 type 4
set atom 563 type 4
set atom 564 type 3
set atom 565 type 3
set atom 566 type 3
set atom 567 type 4
set atom 568 type 4
set atom 569 type 4
set atom 570 type 1
set atom 571 type 4
set atom 572 type 4
set atom 573 type 4
set atom 574 type 4
set atom 575 type 4
set atom 576 type 4
set atom 577 type 4
set atom 578 type 4
set atom 579 type 1
set atom 580 type 1
set atom 581 type 3
set atom 582 type 4
set atom 583 type 4
set atom 584 type 4
set atom 585 type 4
set atom 586 type 4
set atom 587 type 4
set atom 588 type 1
set atom 589 type 4
set atom 590 type 4
set atom 591 type 4
set atom 592 type 4
set atom 593 type 1
set atom 594 type 4
set atom 595 type 1
set atom 596 type 4
set atom 597 type 4
set atom 598 type 4
set atom 599 type 1
set atom 600 type 4
set atom 601 type 4
set atom 602 type 4
set atom 603 type 4
set atom 604 type 1
set atom 605 type 4
set atom 606 type 4
set atom 607 type 4
set atom 608 type 4
set atom 609 type 4
set atom 610 type 4
set atom 611 type 1
set atom 612 type 1
set atom 613 type 4
set atom 614 type 4
set atom 615 type 3
set atom 616 type 3
set atom 617 type 3
set atom 618 type 4
set atom 619 type 4
set atom 620 type 4
set atom 621 type 4
set atom 622 type 4
set atom 623 type 4
set atom 624 type 1
set atom 625 type 4
set atom 626 type 4
set atom 627 type 1
set atom 628 type 4
set atom 629 type 4
set atom 630 type 1
set atom 631 type 1
set atom 632 type 4
set atom 633 type 4
set atom 634 type 4
set atom 635 type 1
set atom 636 type 4
set atom 637 type 4
set atom 638 type 4
set atom 639 type 1
set atom 640 type 4
set atom 641 type 3
set atom 642 type 4
set atom 643 type 4
set atom 644 type 3
set atom 645 type 3
set atom 646 type 3
set atom 647 type 3
set atom 648 type 1
set atom 649 type 4
set atom 650 type 4
set atom 651 type 4
set atom 652 type 4
set atom 653 type 4
set atom 654 type 4
set atom 655 type 4
set atom 656 type 4
set atom 657 type 4
set atom 658 type 1
set atom 659 type 4
set atom 660 type 4
set atom 661 type 1
set atom 662 type 1
set atom 663 type 4
set atom 664 type 4
set atom 665 type 4
set atom 666 type 4
set atom 667 type 3
set atom 668 type 4
set atom 669 type 4
set atom 670 type 4
set atom 671 type 4
set atom 672 type 4
set atom 673 type 1
set atom 674 type 1
set atom 675 type 4
set atom 676 type 3
set atom 677 type 4
set atom 678 type 4
set atom 679 type 4
set atom 680 type 4
set atom 681 type 4
set atom 682 type 1
set atom 683 type 4
set atom 684 type 4
set atom 685 type 1
set atom 686 type 1
set atom 687 type 4
set atom 688 type 1
set atom 689 type 4
set atom 690 type 4
set atom 691 type 4
set atom 692 type 1
set atom 693 type 4
set atom 694 type 4
set atom 695 type 4
set atom 696 type 4
set atom 697 type 4
set atom 698 type 3
set atom 699 type 4
set atom 700 type 1
set atom 701 type 4
set atom 702 type 4
set atom 703 type 4
set atom 704 type 4
set atom 705 type 4
set atom 706 type 1
set atom 707 type 4
set atom 708 type 4
set atom 709 type 4
set atom 710 type 4
set atom 711 type 4
set atom 712 type 4
set atom 713 type 4
set atom 714 type 4
set atom 715 type 4
set atom 716 type 4
set atom 717 type 3
set atom 718 type 4
set atom 719 type 4
set atom 720 type 4
set atom 721 type 4
set atom 722 type 4
set atom 723 type 4
set atom 724 type 4
set atom 725 type 4
set atom 726 type 4
set atom 727 type 4
set atom 728 type 4
set atom 729 type 4
set atom 730 type 4
set atom 731 type 4
set atom 732 type 4
set atom 733 type 4
set atom 734 type 4
set atom 735 type 4
set atom 736 type 4
set atom 737 type 1
set atom 738 type 4
set atom 739 type 4
set atom 740 type 4
set atom 741 type 4
set atom 742 type 4
set atom 743 type 4
set atom 744 type 4
set atom 745 type 4
set atom 746 type 4
set atom 747 type 4
set atom 748 type 4
set atom 749 type 4
set atom 750 type 4
set atom 751 type 4
set atom 752 type 4
set atom 753 type 1
set atom 754 type 4
set atom 755 type 4
set atom 756 type 4
set atom 757 type 4
set atom 758 type 1
set atom 759 type 4
set atom 760 type 4
set atom 761 type 3
set atom 762 type 1
set atom 763 type 4
set atom 764 type 4
set atom 765 type 4
set atom 766 type 1
set atom 767 type 4
set atom 768 type 4
set atom 769 type 4
set atom 770 type 1
set atom 771 type 4
set atom 772 type 4
set atom 773 type 4
set atom 774 type 4
set atom 775 type 4
set atom 776 type 4
set atom 777 type 1
set atom 778 type 4
set atom 779 type 1
set atom 780 type 4
set atom 781 type 4
set atom 782 type 4
set atom 783 type 4
set atom 784 type 4
set atom 785 type 3
set atom 786 type 3
set atom 787 type 4
set atom 788 type 1
set atom 789 type 4
set atom 790 type 3
set atom 791 type 4
set atom 792 type 4
set atom 793 type 4
set atom 794 type 4
set atom 795 type 4
set atom 796 type 4
set atom 797 type 4
set atom 798 type 3
set atom 799 type 4
set atom 800 type 4
set atom 801 type 4
set atom 802 type 4
set atom 803 type 1
set atom 804 type 4
set atom 805 type 4
set atom 806 type 4
set atom 807 type 4
set atom 808 type 4
set atom 809 type 1
set atom 810 type 3
set atom 811 type 4
set atom 812 type 1
set atom 813 type 4
set atom 814 type 4
set atom 815 type 4
set atom 816 type 4
set atom 817 type 1
set atom 818 type 1
set atom 819 type 4
set atom 820 type 4
set atom 821 type 1
set atom 822 type 4
set atom 823 type 4
set atom 824 type 1
set atom 825 type 4
set atom 826 type 4
set atom 827 type 1
set atom 828 type 4
set atom 829 type 4
set atom 830 type 4
set atom 831 type 4
set atom 832 type 4
set atom 833 type 4
set atom 834 type 4
set atom 835 type 1
set atom 836 type 1
set atom 837 type 4
set atom 838 type 4
set atom 839 type 4
set atom 840 type 4
set atom 841 type 1
set atom 842 type 3
set atom 843 type 3
set atom 844 type 3
set atom 845 type 2
set atom 846 type 4
set atom 847 type 4
set atom 848 type 4
set atom 849 type 4
set atom 850 type 3
set atom 851 type 4
set atom 852 type 3
set atom 853 type 3
set atom 854 type 3
set atom 855 type 4
set atom 856 type 4
set atom 857 type 4
set atom 858 type 1
set atom 859 type 4
set atom 860 type 4
set atom 861 type 4
set atom 862 type 4
set atom 863 type 4
set atom 864 type 4
set atom 865 type 4
set atom 866 type 4
set atom 867 type 1
set atom 868 type 1
set atom 869 type 4
set atom 870 type 4
set atom 871 type 3
set atom 872 type 4
set atom 873 type 1
set atom 874 type 4
set atom 875 type 3
set atom 876 type 3
set atom 877 type 4
set atom 878 type 4
set atom 879 type 4
set atom 880 type 4
set atom 881 type 4
set atom 882 type 4
set atom 883 type 4
set atom 884 type 4
set atom 885 type 1
set atom 886 type 4
set atom 887 type 3
set atom 888 type 3
set atom 889 type 3
set atom 890 type 4
set atom 891 type 4
set atom 892 type 4
set atom 893 type 3
set atom 894 type 3
set atom 895 type 4
set atom 896 type 4
set atom 897 type 4
set atom 898 type 4
set atom 899 type 4
set atom 900 type 4
set atom 901 type 4
set atom 902 type 4
set atom 903 type 4
set atom 904 type 4
set atom 905 type 4
set atom 906 type 1
set atom 907 type 4
set atom 908 type 4
set atom 909 type 4
set atom 910 type 4
set atom 911 type 1
set atom 912 type 4
set atom 913 type 4
set atom 914 type 1
set atom 915 type 1
set atom 916 type 4
set atom 917 type 4
set atom 918 type 4
set atom 919 type 1
set atom 920 type 4
set atom 921 type 3
set atom 922 type 4
set atom 923 type 1
set atom 924 type 4
set atom 925 type 4
set atom 926 type 4
set atom 927 type 4
set atom 928 type 1
set atom 929 type 4
set atom 930 type 4
set atom 931 type 4
set atom 932 type 4
set atom 933 type 4
set atom 934 type 4
set atom 935 type 1
set atom 936 type 4
set atom 937 type 4
set atom 938 type 3
set atom 939 type 1
set atom 940 type 4
set atom 941 type 1
set atom 942 type 4
set atom 943 type 1
set atom 944 type 1
set atom 945 type 1
set atom 946 type 1
set atom 947 type 4
set atom 948 type 3
set atom 949 type 3
set atom 950 type 4
set atom 951 type 4
set atom 952 type 4
set atom 953 type 4
set atom 954 type 1
set atom 955 type 4
set atom 956 type 4
set atom 957 type 4
set atom 958 type 4
set atom 959 type 1
set atom 960 type 4
set atom 961 type 4
set atom 962 type 4
set atom 963 type 4
set atom 964 type 3
set atom 965 type 1
set atom 966 type 1
set atom 967 type 4
set atom 968 type 1
set atom 969 type 3
set atom 970 type 3
set atom 971 type 4
set atom 972 type 1
set atom 973 type 4
set atom 974 type 1
set atom 975 type 4
set atom 976 type 4
set atom 977 type 4
set atom 978 type 3
set atom 979 type 3
set atom 980 type 4
set atom 981 type 4
set atom 982 type 4
set atom 983 type 4
set atom 984 type 4
set atom 985 type 4
set atom 986 type 4
set atom 987 type 1
set atom 988 type 1
set atom 989 type 4
set atom 990 type 4
set atom 991 type 4
set atom 992 type 4
set atom 993 type 4
set atom 994 type 4
set atom 995 type 4
set atom 996 type 3
set atom 997 type 4
set atom 998 type 1
set atom 999 type 4
set atom 1000 type 1
set atom 1001 type 4
set atom 1002 type 4
set atom 1003 type 1
set atom 1004 type 4
set atom 1005 type 4
set atom 1006 type 4
set atom 1007 type 3
set atom 1008 type 3
set atom 1009 type 4
set atom 1010 type 4
set atom 1011 type 4
set atom 1012 type 4
set atom 1013 type 4
set atom 1014 type 4
set atom 1015 type 4
set atom 1016 type 4
set atom 1017 type 4
set atom 1018 type 1
set atom 1019 type 4
set atom 1020 type 3
set atom 1021 type 3
set atom 1022 type 4
set atom 1023 type 3
set atom 1024 type 4
set atom 1025 type 4
set atom 1026 type 4
set atom 1027 type 3
set atom 1028 type 3
set atom 1029 type 4
set atom 1030 type 4
set atom 1031 type 3
set atom 1032 type 4
set atom 1033 type 1
set atom 1034 type 4
set atom 1035 type 4
set atom 1036 type 4
set atom 1037 type 4
set atom 1038 type 1
set atom 1039 type 4
set atom 1040 type 4
set atom 1041 type 4
set atom 1042 type 4
set atom 1043 type 4
set atom 1044 type 4
set atom 1045 type 4
set atom 1046 type 4
set atom 1047 type 4
set atom 1048 type 4
set atom 1049 type 4
set atom 1050 type 4
set atom 1051 type 1
set atom 1052 type 4
set atom 1053 type 4
set atom 1054 type 4
set atom 1055 type 4
set atom 1056 type 4
set atom 1057 type 3
set atom 1058 type 4
set atom 1059 type 4
set atom 1060 type 4
set atom 1061 type 4
set atom 1062 type 4
set atom 1063 type 4
set atom 1064 type 4
set atom 1065 type 4
set atom 1066 type 1
set atom 1067 type 1
set atom 1068 type 4
set atom 1069 type 4
set atom 1070 type 1
set atom 1071 type 1
set atom 1072 type 4
set atom 1073 type 4
set atom 1074 type 4
set atom 1075 type 4
set atom 1076 type 4
set atom 1077 type 3
set atom 1078 type 3
set atom 1079 type 3
set atom 1080 type 4
set atom 1081 type 4
set atom 1082 type 4
set atom 1083 type 1
set atom 1084 type 4
set atom 1085 type 4
set atom 1086 type 4
set atom 1087 type 4
set atom 1088 type 4
set atom 1089 type 4
set atom 1090 type 1
set atom 1091 type 4
set atom 1092 type 4
set atom 1093 type 4
set atom 1094 type 4
set atom 1095 type 1
set atom 1096 type 4
set atom 1097 type 1
set atom 1098 type 1
set atom 1099 type 4
set atom 1100 type 4
set atom 1101 type 4
set atom 1102 type 4
set atom 1103 type 4
set atom 1104 type 4
set atom 1105 type 1
set atom 1106 type 4
set atom 1107 type 4
set atom 1108 type 4
set atom 1109 type 4
set atom 1110 type 4
set atom 1111 type 4
set atom 1112 type 4
set atom 1113 type 4
set atom 1114 type 4
set atom 1115 type 4
set atom 1116 type 4
set atom 1117 type 4
set atom 1118 type 4
set atom 1119 type 4
set atom 1120 type 4
set atom 1121 type 3
set atom 1122 type 4
set atom 1123 type 4
set atom 1124 type 4
set atom 1125 type 1
set atom 1126 type 1
set atom 1127 type 1
set atom 1128 type 4
set atom 1129 type 4
set atom 1130 type 4
set atom 1131 type 4
set atom 1132 type 4
set atom 1133 type 4
set atom 1134 type 3
set atom 1135 type 3
set atom 1136 type 3
set atom 1137 type 1
set atom 1138 type 4
set atom 1139 type 3
set atom 1140 type 4
set atom 1141 type 1
set atom 1142 type 1
set atom 1143 type 4
set atom 1144 type 4
set atom 1145 type 4
set atom 1146 type 1
set atom 1147 type 4
set atom 1148 type 4
set atom 1149 type 1
set atom 1150 type 3
set atom 1151 type 3
set atom 1152 type 1
set atom 1153 type 1
set atom 1154 type 4
set atom 1155 type 4
set atom 1156 type 4
set atom 1157 type 4
set atom 1158 type 4
set atom 1159 type 4
set atom 1160 type 4
set atom 1161 type 4
set atom 1162 type 4
set atom 1163 type 4
set atom 1164 type 1
set atom 1165 type 4
set atom 1166 type 3
set atom 1167 type 4
set atom 1168 type 4
set atom 1169 type 4
set atom 1170 type 4
set atom 1171 type 3
set atom 1172 type 1
set atom 1173 type 4
set atom 1174 type 1
set atom 1175 type 1
set atom 1176 type 1
set atom 1177 type 1
set atom 1178 type 4
set atom 1179 type 4
set atom 1180 type 1
set atom 1181 type 3
set atom 1182 type 3
set atom 1183 type 4
set atom 1184 type 4
set atom 1185 type 4
set atom 1186 type 4
set atom 1187 type 4
set atom 1188 type 4
set atom 1189 type 4
set atom 1190 type 4
set atom 1191 type 4
set atom 1192 type 4
set atom 1193 type 4
set atom 1194 type 1
set atom 1195 type 1
set atom 1196 type 4
set atom 1197 type 4
set atom 1198 type 4
set atom 1199 type 4
set atom 1200 type 4
set atom 1201 type 4
set atom 1202 type 4
set atom 1203 type 4
set atom 1204 type 4
set atom 1205 type 4
set atom 1206 type 1
set atom 1207 type 4
set atom 1208 type 4
set atom 1209 type 3
set atom 1210 type 4
set atom 1211 type 1
set atom 1212 type 4
set atom 1213 type 4
set atom 1214 type 1
set atom 1215 type 1
set atom 1216 type 4
set atom 1217 type 4
set atom 1218 type 1
set atom 1219 type 4
set atom 1220 type 4
set atom 1221 type 1
set atom 1222 type 4
set atom 1223 type 4
set atom 1224 type 4
set atom 1225 type 4
set atom 1226 type 4
set atom 1227 type 4
set atom 1228 type 4
set atom 1229 type 4
set atom 1230 type 1
set atom 1231 type 1
set atom 1232 type 3
set atom 1233 type 3
set atom 1234 type 3
set atom 1235 type 4
set atom 1236 type 4
set atom 1237 type 4
set atom 1238 type 4
set atom 1239 type 4
set atom 1240 type 4
set atom 1241 type 4
set atom 1242 type 4
set atom 1243 type 4
set atom 1244 type 4
set atom 1245 type 4
set atom 1246 type 4
set atom 1247 type 4
set atom 1248 type 4
set atom 1249 type 4
set atom 1250 type 4
set atom 1251 type 1
set atom 1252 type 4
set atom 1253 type 4
set atom 1254 type 3
set atom 1255 type 3
set atom 1256 type 4
set atom 1257 type 3
set atom 1258 type 1
set atom 1259 type 1
set atom 1260 type 4
set atom 1261 type 2
set atom 1262 type 4
set atom 1263 type 4
set atom 1264 type 1
set atom 1265 type 4
set atom 1266 type 4
set atom 1267 type 4
set atom 1268 type 4
set atom 1269 type 4
set atom 1270 type 4
set atom 1271 type 4
set atom 1272 type 4
set atom 1273 type 4
set atom 1274 type 4
set atom 1275 type 4
set atom 1276 type 2
set atom 1277 type 3
set atom 1278 type 4
set atom 1279 type 4
set atom 1280 type 4
set atom 1281 type 4
set atom 1282 type 4
set atom 1283 type 4
set atom 1284 type 4
set atom 1285 type 3
set atom 1286 type 3
set atom 1287 type 3
set atom 1288 type 3
set atom 1289 type 4
set atom 1290 type 3
set atom 1291 type 3
set atom 1292 type 3
set atom 1293 type 4
set atom 1294 type 4
set atom 1295 type 3
set atom 1296 type 4
set atom 1297 type 3
set atom 1298 type 2
set atom 1299 type 4
set atom 1300 type 2
set atom 1301 type 3
set atom 1302 type 4
set atom 1303 type 3
set atom 1304 type 4
set atom 1305 type 4
set atom 1306 type 4
set atom 1307 type 4
set atom 1308 type 4
set atom 1309 type 4
set atom 1310 type 4
set atom 1311 type 3
set atom 1312 type 4
set atom 1313 type 4
set atom 1314 type 4
set atom 1315 type 1
set atom 1316 type 4
set atom 1317 type 4
set atom 1318 type 4
set atom 1319 type 1
set atom 1320 type 1
set atom 1321 type 1
set atom 1322 type 3
set atom 1323 type 4
set atom 1324 type 4
set atom 1325 type 4
set atom 1326 type 3
set atom 1327 type 4
set atom 1328 type 4
set atom 1329 type 4
set atom 1330 type 3
set atom 1331 type 4
set atom 1332 type 4
set atom 1333 type 4
set atom 1334 type 4
set atom 1335 type 4
set atom 1336 type 1
set atom 1337 type 4
set atom 1338 type 4
set atom 1339 type 4
set atom 1340 type 1
set atom 1341 type 3
set atom 1342 type 3
set atom 1343 type 4
set atom 1344 type 4
set atom 1345 type 4
set atom 1346 type 4
set atom 1347 type 4
set atom 1348 type 4
set atom 1349 type 4
set atom 1350 type 4
set atom 1351 type 4
set atom 1352 type 4
set atom 1353 type 3
set atom 1354 type 4
set atom 1355 type 4
set atom 1356 type 3
set atom 1357 type 3
set atom 1358 type 4
set atom 1359 type 4
set atom 1360 type 3
set atom 1361 type 4
set atom 1362 type 4
set atom 1363 type 1
set atom 1364 type 4
set atom 1365 type 4
set atom 1366 type 3
set atom 1367 type 4
set atom 1368 type 1
set atom 1369 type 4
set atom 1370 type 3
set atom 1371 type 2
set atom 1372 type 4
set atom 1373 type 4
set atom 1374 type 4
set atom 1375 type 1
set atom 1376 type 3
set atom 1377 type 3
set atom 1378 type 3
set atom 1379 type 4
set atom 1380 type 3
set atom 1381 type 4
set atom 1382 type 4
set atom 1383 type 4
set atom 1384 type 1
set atom 1385 type 4
set atom 1386 type 4
set atom 1387 type 4
set atom 1388 type 3
set atom 1389 type 3
set atom 1390 type 3
set atom 1391 type 4
set atom 1392 type 4
set atom 1393 type 4
set atom 1394 type 1
set atom 1395 type 4
set atom 1396 type 4
set atom 1397 type 4
set atom 1398 type 1
set atom 1399 type 4
set atom 1400 type 4
set atom 1401 type 1
set atom 1402 type 1
set atom 1403 type 4
set atom 1404 type 4
set atom 1405 type 1
set atom 1406 type 4
set atom 1407 type 4
set atom 1408 type 4
set atom 1409 type 4
set atom 1410 type 4
set atom 1411 type 1
set atom 1412 type 1
set atom 1413 type 4
set atom 1414 type 4
set atom 1415 type 4
set atom 1416 type 4
set atom 1417 type 4
set atom 1418 type 4
set atom 1419 type 4
set atom 1420 type 4
set atom 1421 type 3
set atom 1422 type 4